 $CONTRL SCFTYP=RHF RUNTYP=MD COORD=UNIQUE
DFTTYP=CAMB3LYP MAXIT=200 ICHARG=0 MULT=1 $END
 $MD KEVERY=10 PROD=.T. NVTNH=2 MBT=.T. MBR=.T. 
BATHT=298 RSTEMP=.T. DTEMP=25 NSTEPS=50000
SSBP=.T. SFORCE=1.0 DROFF=9.04 $END
 $DFT DC=.F. $END
 $SYSTEM MWORDS=1000 MEMDDI=1000 $END
 $SCF DIRSCF=.T. $END
 $BASIS GBASIS=N311 NGAUSS=6 NDFUNC=1 NPFUNC=1 
    DIFFSP=.TRUE. DIFFS=.TRUE. POLAR=POPN311 $END
 $DATA
MD INPUT
C1 1
N	7.0	1.2098925956	-1.9218599456	-2.0870199008
C	6.0	1.5456165564	-0.8364709748	-1.2186012250
C	6.0	2.6055498372	0.0087880757	-1.4196029734
C	6.0	2.8667998627	1.0523687823	-0.5362455606
C	6.0	1.8694872243	1.4318037590	0.4071253791
C	6.0	0.7358418489	0.6457675466	0.5735711950
C	6.0	0.6977356896	-0.5169328726	-0.1430769483
H	1.0	-0.1878964223	-1.2070225800	-0.0293467859
H	1.0	-0.0881998287	0.9676929350	1.1725615549
H	1.0	2.1428620340	2.2882351217	1.0288751418
H	1.0	3.6749888299	1.6959526685	-0.7659671556
H	1.0	3.2899032206	-0.2493030457	-2.1761433876
H	1.0	1.7118577581	-2.0247685340	-2.9457740178
H	1.0	1.0013289310	-2.8066041595	-1.6390077097
 $END

 $EFRAG
COORD=CART  POSITION=OPTIMIZE
FRAGNAME=H2ODFT ! 1
 O1	2.3134820897	5.3101142102	-1.2163404004
 H2	1.4234682276	4.9970922862	-1.2441082651
 H3	2.4658941634	5.7667804983	-2.0281931672
FRAGNAME=H2ODFT ! 2
 O1	4.1987814093	2.3410495638	2.6325695942
 H2	3.3612762298	2.7664049264	2.7249619324
 H3	4.5441884726	2.6013927574	1.7936453804
FRAGNAME=H2ODFT ! 3
 O1	5.7014519568	2.5271740029	0.5801923279
 H2	5.9715248148	1.6490144083	0.3639174282
 H3	5.2564708818	2.8688376506	-0.1788440671
FRAGNAME=H2ODFT ! 4
 O1	-6.0319484943	-0.0437667570	-0.5327659157
 H2	-5.9774561540	0.8808067692	-0.7146252954
 H3	-5.9550061847	-0.1412016476	0.4028968320
FRAGNAME=H2ODFT ! 5
 O1	5.3023194693	-1.3417951185	-2.3818597383
 H2	5.3655359188	-0.5531195872	-2.8965179172
 H3	6.1070505265	-1.8170605299	-2.5138035463
FRAGNAME=H2ODFT ! 6
 O1	1.4246395823	0.1662930217	3.4384748591
 H2	1.5331095067	-0.2335773680	4.2865411308
 H3	2.0385358242	-0.2558495722	2.8589875953
FRAGNAME=H2ODFT ! 7
 O1	-1.1953378019	-0.6427483695	2.8540767788
 H2	-0.2589061764	-0.5344082964	2.8067830846
 H3	-1.5382225042	-0.4129949053	2.0052411759
FRAGNAME=H2ODFT ! 8
 O1	5.2568704562	2.0218115697	6.1758924598
 H2	5.8045189030	2.2021231331	5.4285990954
 H3	5.7849429823	2.1763021765	6.9428021763
FRAGNAME=H2ODFT ! 9
 O1	-0.8025103626	-0.8498063847	6.1845232847
 H2	0.1324046220	-0.7242225128	6.1522569450
 H3	-0.9487105878	-1.7783577358	6.2699418805
FRAGNAME=H2ODFT ! 10
 O1	0.1876227952	-4.5607368636	-0.7606468055
 H2	0.6594256011	-5.1850040651	-1.2884450887
 H3	-0.7240976659	-4.6461970145	-0.9894279622
FRAGNAME=H2ODFT ! 11
 O1	3.3814940826	-3.5760276148	3.5826891473
 H2	2.8671698277	-4.0080097887	4.2458184078
 H3	2.7754127530	-3.2633412665	2.9301777500
FRAGNAME=H2ODFT ! 12
 O1	-1.8877600714	1.0218957906	4.8280580763
 H2	-1.7182166755	0.3909893158	4.1468161877
 H3	-1.5535298553	0.6521024332	5.6295700783
FRAGNAME=H2ODFT ! 13
 O1	-1.1375433918	3.0273698835	0.5895090084
 H2	-1.0019489137	2.2761960725	0.0343239069
 H3	-0.7840195850	2.8062252997	1.4362642533
FRAGNAME=H2ODFT ! 14
 O1	-6.2211761782	-2.0402368480	-2.3593666476
 H2	-7.0897742486	-2.3675973800	-2.5303956747
 H3	-6.3167246032	-1.3181775702	-1.7590506042
FRAGNAME=H2ODFT ! 15
 O1	-3.9450176558	-6.0476480499	0.4238883985
 H2	-3.7580014070	-5.5868973467	1.2261428260
 H3	-4.8473995837	-6.3202386507	0.4716343405
FRAGNAME=H2ODFT ! 16
 O1	-0.9607233659	-3.5042155685	5.8678623695
 H2	-0.4042804570	-3.9778033593	5.2703974350
 H3	-1.0781683213	-4.0561015128	6.6245043200
FRAGNAME=H2ODFT ! 17
 O1	4.1449679522	-0.4546226361	2.3445253988
 H2	4.3408057187	0.4301528222	2.6085299667
 H3	4.5631179790	-0.5872031192	1.5087913353
FRAGNAME=H2ODFT ! 18
 O1	2.3593674007	5.9375616585	-3.8296073087
 H2	1.4561135566	6.1881788081	-3.9400699341
 H3	2.8807211947	6.6311965124	-4.2010092002
FRAGNAME=H2ODFT ! 19
 O1	6.3958698400	2.2624901390	3.9621824968
 H2	5.6319629993	2.2940004143	3.4087099183
 H3	6.9129923102	3.0242693415	3.7544440760
FRAGNAME=H2ODFT ! 20
 O1	-1.7280667722	1.2689022345	-1.3973587623
 H2	-1.5333507983	0.4851946023	-1.8859961437
 H3	-2.1733937579	1.8539747104	-1.9891801269
FRAGNAME=H2ODFT ! 21
 O1	2.6015717763	2.6768467128	5.7261261087
 H2	2.4878263255	3.1295186554	4.9057429429
 H3	3.5317026604	2.6032919551	5.8686907953
FRAGNAME=H2ODFT ! 22
 O1	3.2143966702	3.2447287302	-3.4338744930
 H2	3.1059481165	4.1511817359	-3.6735833033
 H3	2.3735814263	2.9419752776	-3.1301500675
FRAGNAME=H2ODFT ! 23
 O1	1.8714483444	0.0420790760	6.1864641595
 H2	1.8567565792	0.9695946706	6.3607553760
 H3	2.6286516843	-0.3053534320	6.6300993800
FRAGNAME=H2ODFT ! 24
 O1	3.4028940649	-2.8875216633	-3.9502674647
 H2	4.0787821245	-2.4247846840	-3.4813023561
 H3	3.2938171996	-3.7195187489	-3.5181083028
FRAGNAME=H2ODFT ! 25
 O1	4.5336669172	0.5419299796	-4.0556149970
 H2	3.8579209256	0.0239950682	-4.4630327635
 H3	4.1411353534	1.3696686488	-3.8283571677
FRAGNAME=H2ODFT ! 26
 O1	-4.6173287402	-0.8627750306	4.4114912784
 H2	-4.4145685945	-0.3759960842	5.1943150355
 H3	-3.9757257985	-1.5520060573	4.3468019365
FRAGNAME=H2ODFT ! 27
 O1	8.0475575805	3.0126602407	1.9931092660
 H2	8.7273569885	3.2045242460	1.3670586112
 H3	7.2559344620	2.8708255241	1.4990503571
FRAGNAME=H2ODFT ! 28
 O1	3.7855494961	-2.9018164275	-0.3043497253
 H2	4.4221981922	-3.0970213884	0.3645687414
 H3	4.1631274186	-2.2312175312	-0.8508023642
FRAGNAME=H2ODFT ! 29
 O1	2.9869389537	5.5827865999	1.4159185712
 H2	3.0577134141	5.6129700699	0.4751963019
 H3	3.5070530450	6.2959974567	1.7501191994
FRAGNAME=H2ODFT ! 30
 O1	0.5231420710	-5.1215876040	4.4071262102
 H2	0.2706321408	-5.1190911963	3.4976698027
 H3	0.7822667724	-6.0052234578	4.6142988944
FRAGNAME=H2ODFT ! 31
 O1	1.7590370192	-2.6950567487	1.5291519528
 H2	2.2027172605	-2.6230971133	0.6991832133
 H3	0.9701137623	-3.1891429674	1.3730835152
FRAGNAME=H2ODFT ! 32
 O1	0.7979009073	2.2703826428	-2.8181278397
 H2	0.8074148859	1.3956732247	-2.4636262570
 H3	0.4652681606	2.8348479683	-2.1387069051
FRAGNAME=H2ODFT ! 33
 O1	7.6115967160	-0.3748633648	3.8092162479
 H2	6.9137210291	-0.8290427204	4.2537036972
 H3	7.4096377843	0.5459059620	3.8569120618
FRAGNAME=H2ODFT ! 34
 O1	7.5439136870	-2.5693000395	-2.2925613519
 H2	8.3542344671	-2.5076291955	-2.7726190510
 H3	7.6562222287	-3.2591496184	-1.6582327271
FRAGNAME=H2ODFT ! 35
 O1	-4.9895876713	0.4551101857	2.1889748483
 H2	-5.2946724865	1.3177174363	2.4207299788
 H3	-4.8699294310	-0.0166737605	2.9976653129
FRAGNAME=H2ODFT ! 36
 O1	2.7980250823	-4.8871669085	-2.0930735445
 H2	3.2469181588	-5.7174304022	-2.0990728053
 H3	3.1457356716	-4.3960282881	-1.3659156141
FRAGNAME=H2ODFT ! 37
 O1	-2.6064171973	0.1153315352	0.8080308810
 H2	-3.4388572835	0.3447626397	1.1891913787
 H3	-2.4697187271	0.7022036941	0.0815509768
FRAGNAME=H2ODFT ! 38
 O1	-2.3794108975	5.4006982867	-2.8628577083
 H2	-2.6787985200	4.5362098321	-3.0950326798
 H3	-3.0238052281	5.7623377793	-2.2756173162
FRAGNAME=H2ODFT ! 39
 O1	-1.5577564001	-0.9999196464	-2.8059396744
 H2	-2.3806494530	-1.4348240558	-2.9627313588
 H3	-0.8984858379	-1.6740180492	-2.7631363659
FRAGNAME=H2ODFT ! 40
 O1	-2.3731361719	-4.4547420711	-1.3207395158
 H2	-3.1289265476	-4.9373804049	-1.0262575963
 H3	-2.4939355788	-3.5624208036	-1.0378107030
FRAGNAME=H2ODFT ! 41
 O1	5.2327485177	-1.7607513826	4.3318765299
 H2	4.9453651344	-2.6513079160	4.2085951199
 H3	4.7466099613	-1.2316306827	3.7198479006
FRAGNAME=H2ODFT ! 42
 O1	4.4082688108	3.9233083489	-1.0580554163
 H2	3.5392978878	4.2577557823	-0.9034174411
 H3	4.3954353361	3.5185767134	-1.9106432765
FRAGNAME=H2ODFT ! 43
 O1	-0.1845618796	4.3835348966	-1.4094358764
 H2	-0.5143030176	4.2551407553	-0.5344134879
 H3	-0.8140260722	4.9235547099	-1.8600264726
FRAGNAME=H2ODFT ! 44
 O1	7.6059044836	-1.7651588360	1.5480404958
 H2	7.8436387348	-1.2862490121	2.3258619795
 H3	8.3462417565	-2.3069609144	1.3261628623
FRAGNAME=H2ODFT ! 45
 O1	-3.3776334229	-2.0518057630	-0.3829822311
 H2	-4.3009324239	-1.8994110506	-0.5061620202
 H3	-3.0171736436	-1.2571943097	-0.0230657966
FRAGNAME=H2ODFT ! 46
 O1	4.3427834918	-0.5445164692	6.7064657855
 H2	4.6779669298	-1.0298199311	5.9695729391
 H3	4.6777150449	0.3343794596	6.6274641682
FRAGNAME=H2ODFT ! 47
 O1	7.4411429176	-4.5460900871	-0.4291850733
 H2	6.7514828499	-4.4272721851	0.2041629758
 H3	7.1921681797	-5.2808942490	-0.9667284461
FRAGNAME=H2ODFT ! 48
 O1	-2.5478869060	-2.4811321239	3.9933014887
 H2	-1.9230269052	-1.8787981196	3.6223268527
 H3	-2.1377127269	-2.8644275625	4.7520637725
FRAGNAME=H2ODFT ! 49
 O1	5.9206290153	-0.1617531412	0.3070049226
 H2	6.6773393833	-0.6373935861	0.6103760486
 H3	5.8270696637	-0.3580810695	-0.6114614330
FRAGNAME=H2ODFT ! 50
 O1	-2.6909742696	0.5802509494	-5.0275595120
 H2	-2.7079092763	-0.2471889129	-4.5737589680
 H3	-3.3604182335	0.5391814511	-5.6916653240
FRAGNAME=H2ODFT ! 51
 O1	1.9943975050	3.7840575019	3.1149652312
 H2	1.0927374316	3.5060675723	3.0902839646
 H3	2.0602590776	4.5412116475	2.5552703975
FRAGNAME=H2ODFT ! 52
 O1	-5.1706693688	2.3516073659	-1.2976702454
 H2	-5.8264279589	2.9955055100	-1.5127383870
 H3	-4.7076602611	2.6776946903	-0.5425754982
FRAGNAME=H2ODFT ! 53
 O1	-3.6750046187	3.3209699133	0.5235341981
 H2	-4.0960395103	3.3231620829	1.3682846159
 H3	-2.7568185011	3.1666639544	0.6784612084
FRAGNAME=H2ODFT ! 54
 O1	-5.2765255057	3.1056978102	2.8709170610
 H2	-5.8458618070	3.8576948254	2.9060613251
 H3	-5.0198867291	2.9179701341	3.7596089717
FRAGNAME=H2ODFT ! 55
 O1	-0.0499935017	2.3529430370	3.0709706768
 H2	-0.7159124606	2.3285148182	3.7394268507
 H3	0.5282854219	1.6257822643	3.2374313363
FRAGNAME=H2ODFT ! 56
 O1	-0.4477410591	3.4130200521	-5.2458210909
 H2	-0.0326232626	3.0195037249	-4.4950211381
 H3	-0.8717989472	2.7146662243	-5.7184258862
FRAGNAME=H2ODFT ! 57
 O1	5.6915254159	-3.6160616733	1.6506498317
 H2	5.1563460645	-3.6877029310	2.4248132807
 H3	6.3095758041	-2.9210603998	1.8114770715
FRAGNAME=H2ODFT ! 58
 O1	-3.3400317829	2.6166312274	-3.2544047835
 H2	-4.0496770539	2.3136107043	-2.7108419019
 H3	-3.2433145178	1.9865292328	-3.9504620377
FRAGNAME=H2ODFT ! 59
 O1	-3.1177654368	-3.8786892296	1.7362359566
 H2	-3.2046150379	-3.3171245134	2.4898808800
 H3	-3.1927381657	-3.3251688745	0.9753990747
FRAGNAME=H2ODFT ! 60
 O1	-4.2787846281	1.9067396428	4.8962524121
 H2	-3.3768497627	1.6285455551	4.8962987548
 H3	-4.5288452096	2.0165748802	5.7997369887
FRAGNAME=H2ODFT ! 61
 O1	-0.4493069810	-4.7505795945	1.9628349025
 H2	-1.3005989905	-4.3502794259	1.8857625729
 H3	-0.1432999538	-4.9086610360	1.0840582463
FRAGNAME=H2ODFT ! 62
 O1	-0.0447298198	6.1414236734	-4.5414573556
 H2	-0.7518542951	6.1505415571	-3.9163411308
 H3	-0.0187986526	5.2724722345	-4.9090569001
FRAGNAME=H2ODFT ! 63
 O1	2.8668074563	-0.9395950259	-5.6976555298
 H2	3.0624406004	-1.7994607287	-5.3611483229
 H3	2.9104395320	-1.0001106175	-6.6385660247
FRAGNAME=H2ODFT ! 64
 O1	-3.8465039089	-2.0786671713	-3.8258413265
 H2	-3.6386130002	-2.9843838829	-3.9911805609
 H3	-4.6892013007	-2.0669658866	-3.4008676336
 $END