 $CONTRL SCFTYP=RHF RUNTYP=MD COORD=UNIQUE
DFTTYP=CAMB3LYP MAXIT=200 ICHARG=0 MULT=1 $END
 $MD KEVERY=10 PROD=.T. NVTNH=2 MBT=.T. MBR=.T. 
BATHT=298 RSTEMP=.T. DTEMP=25 NSTEPS=50000
SSBP=.T. SFORCE=1.0 DROFF=13.72 $END
 $DFT DC=.F. $END
 $SYSTEM MWORDS=1000 MEMDDI=1000 $END
 $SCF DIRSCF=.T. $END
 $BASIS GBASIS=N311 NGAUSS=6 NDFUNC=1 NPFUNC=1 
    DIFFSP=.TRUE. DIFFS=.TRUE. POLAR=POPN311 $END
 $DATA
MD INPUT
C1 1
N	7.0	-0.0559802506	-3.5367051772	-1.6747112269
C	6.0	0.3565210731	-2.2797772489	-1.4086070967
C	6.0	-0.5924900304	-1.2379344070	-0.9553172970
C	6.0	-0.1091698479	0.0134942730	-0.7829810687
C	6.0	1.3012893531	0.3282438019	-0.7896431582
C	6.0	2.1507835037	-0.6998754062	-1.1089645698
C	6.0	1.7079275390	-1.9523309426	-1.4761985977
H	1.0	2.4034460011	-2.7321307488	-1.8342589726
H	1.0	3.2124615002	-0.5956471101	-0.8952932063
H	1.0	1.6725509540	1.3228787323	-0.5051933412
H	1.0	-0.7885124991	0.7527503563	-0.4836734650
H	1.0	-1.6355272833	-1.4012045128	-0.7671265359
H	1.0	-1.0286734421	-3.5469000002	-1.7606992142
H	1.0	0.3970758354	-4.0120496352	-2.4650632248
 $END

 $EFRAG
COORD=CART  POSITION=OPTIMIZE
FRAGNAME=H2ODFT ! 1
 O1	-4.1376638477	6.6263255131	-0.4643664593
 H2	-3.6303776705	5.8476039020	-0.2996490026
 H3	-4.6536824787	6.4557533343	-1.2360583395
FRAGNAME=H2ODFT ! 2
 O1	-6.5505541994	-3.2059852176	5.0986071576
 H2	-6.5743031374	-3.5708200520	4.2284290232
 H3	-6.5029167694	-3.9343986730	5.6969573622
FRAGNAME=H2ODFT ! 3
 O1	4.7488770986	4.9414937802	4.2715266668
 H2	4.8720889529	4.5535214248	3.4199547412
 H3	4.8730625010	5.8712483417	4.1665843242
FRAGNAME=H2ODFT ! 4
 O1	-4.9312046299	-0.9530438998	5.3154733197
 H2	-5.3200610048	-1.7897956382	5.1166877514
 H3	-4.1025663757	-1.1308291309	5.7309603945
FRAGNAME=H2ODFT ! 5
 O1	-3.9682721586	8.3039671286	-5.2627298456
 H2	-4.4531077564	9.0508482284	-5.5757498448
 H3	-3.0594883500	8.4699951934	-5.4561855896
FRAGNAME=H2ODFT ! 6
 O1	4.9489559160	-3.4659599277	-0.0778938969
 H2	4.7535563800	-3.3734842711	-0.9966679326
 H3	5.1565034170	-2.6031114733	0.2435015510
FRAGNAME=H2ODFT ! 7
 O1	4.8987975041	-4.5170150229	-4.6194591884
 H2	4.5037455653	-4.2862988942	-5.4450392799
 H3	5.6266905041	-5.0847418436	-4.8162750711
FRAGNAME=H2ODFT ! 8
 O1	-2.4618996706	-0.7278719274	6.2923109381
 H2	-2.2797274840	-0.3597939515	7.1421405396
 H3	-1.7415165617	-0.4867378832	5.7321493520
FRAGNAME=H2ODFT ! 9
 O1	-0.5295573618	-5.7556485757	0.5455888268
 H2	0.2811247061	-6.0567473380	0.1674187931
 H3	-0.8912387277	-5.1241452662	-0.0554674217
FRAGNAME=H2ODFT ! 10
 O1	-7.6974673480	3.5175899976	-3.1781661964
 H2	-7.2477012966	2.7082479063	-3.3613446102
 H3	-7.5392826284	4.0882209698	-3.9131739114
FRAGNAME=H2ODFT ! 11
 O1	1.8296594576	10.1383985241	1.2544072725
 H2	2.6703840345	9.7310751412	1.3891229024
 H3	1.3706108980	9.6100868393	0.6211303686
FRAGNAME=H2ODFT ! 12
 O1	-1.1088348578	2.3869070714	-6.0180676193
 H2	-1.7896016712	2.8793758041	-6.4480787207
 H3	-1.1696735010	2.5866153647	-5.0975820347
FRAGNAME=H2ODFT ! 13
 O1	0.9380317870	1.5751106853	-7.2961996195
 H2	0.1893786451	1.9037122333	-6.8245875433
 H3	0.8749069626	1.9134467877	-8.1750752609
FRAGNAME=H2ODFT ! 14
 O1	-1.6667814482	-6.4719199889	6.6559712392
 H2	-2.3414491015	-6.4026938622	5.9995340712
 H3	-1.6318289099	-5.6386834514	7.0979821520
FRAGNAME=H2ODFT ! 15
 O1	1.0024076418	-7.3194854488	6.2453418566
 H2	0.0612432820	-7.3600978047	6.3039826199
 H3	1.2409585145	-7.7246751056	5.4269328648
FRAGNAME=H2ODFT ! 16
 O1	4.1462282945	5.4347017483	-3.5746147654
 H2	4.5521046042	4.9163182647	-2.8982853788
 H3	3.2133982336	5.3507593317	-3.4577378985
FRAGNAME=H2ODFT ! 17
 O1	-3.4837755932	-3.4979666816	1.8164914157
 H2	-3.2587021558	-2.6078937012	1.5974240930
 H3	-2.9127631490	-3.7563356004	2.5222312721
FRAGNAME=H2ODFT ! 18
 O1	4.0848580773	-10.4287715469	-0.5340484514
 H2	3.2253664587	-10.4765967669	-0.1469239754
 H3	4.6759776946	-10.1584325872	0.1503292944
FRAGNAME=H2ODFT ! 19
 O1	1.9794628351	7.2560240578	-5.8145877364
 H2	1.7321041480	6.3689163904	-6.0213052243
 H3	2.8661511891	7.3681347705	-6.1180566879
FRAGNAME=H2ODFT ! 20
 O1	-0.0649179234	-5.4758888026	3.0752693010
 H2	-0.2057122893	-5.6154140963	2.1524539928
 H3	0.7270871778	-4.9687259131	3.1552203950
FRAGNAME=H2ODFT ! 21
 O1	11.2607263494	-3.4926670850	1.2389209887
 H2	11.4853707192	-3.6848336960	0.3425475427
 H3	10.4228037417	-3.8957741968	1.4009975570
FRAGNAME=H2ODFT ! 22
 O1	0.2038858011	5.0619661204	-9.1836065886
 H2	-0.0068420403	5.9819781297	-9.1765261072
 H3	-0.6147334663	4.5957036340	-9.1258117583
FRAGNAME=H2ODFT ! 23
 O1	-0.0667164478	-5.7249684823	-4.6568083728
 H2	0.4178152378	-4.9234930037	-4.5395711920
 H3	-0.6647144810	-5.5782822418	-5.3721823680
FRAGNAME=H2ODFT ! 24
 O1	-8.8202997420	2.7962876654	1.3633897806
 H2	-9.6324754600	2.3794504395	1.6031725651
 H3	-8.1318528595	2.1800150243	1.5560744331
FRAGNAME=H2ODFT ! 25
 O1	1.7249518438	-1.5610793519	-4.8688104329
 H2	2.4278364251	-1.0673587951	-4.4775666063
 H3	1.6988335735	-1.3197218702	-5.7809194487
FRAGNAME=H2ODFT ! 26
 O1	-7.7001473498	-8.6502305183	-0.1904942732
 H2	-8.2206855674	-8.1044732705	0.3770155899
 H3	-6.8154621046	-8.6157778708	0.1366501694
FRAGNAME=H2ODFT ! 27
 O1	-9.4236765266	-6.6936321363	1.2553466406
 H2	-9.4754530501	-6.0771612638	0.5424923009
 H3	-10.2853455830	-6.7389884103	1.6379008205
FRAGNAME=H2ODFT ! 28
 O1	-1.3520377819	5.4323601611	-5.3826012382
 H2	-1.2004738996	6.0318590558	-4.6695038257
 H3	-0.5036663547	5.1466575310	-5.6817974677
FRAGNAME=H2ODFT ! 29
 O1	6.8513432464	-1.3752919396	-7.1786814554
 H2	7.4563977545	-1.6053322019	-6.4917542577
 H3	6.5995194200	-2.1816654788	-7.5996623702
FRAGNAME=H2ODFT ! 30
 O1	5.7591332453	5.2700756184	-1.3100948089
 H2	5.8460054112	4.5855904407	-0.6660360210
 H3	6.6226248093	5.4268843004	-1.6574732916
FRAGNAME=H2ODFT ! 31
 O1	3.7174537319	-3.3288673283	-6.6299587345
 H2	2.8569397685	-3.4442878616	-7.0001914621
 H3	3.7931057086	-2.4169602254	-6.3984837522
FRAGNAME=H2ODFT ! 32
 O1	10.6810282734	-3.4963596464	-1.6816368441
 H2	10.3699244215	-4.2124487934	-2.2120227231
 H3	9.9216772634	-3.1091289302	-1.2762766714
FRAGNAME=H2ODFT ! 33
 O1	13.3690034046	0.5056453717	0.4329218759
 H2	13.6911969683	0.9997477652	1.1697614693
 H3	12.7410816475	-0.1112085392	0.7736328583
FRAGNAME=H2ODFT ! 34
 O1	11.1138934034	1.0629853904	-1.2586814726
 H2	11.9372222184	0.9749193607	-0.8056334717
 H3	10.9298351273	0.2250666355	-1.6522461632
FRAGNAME=H2ODFT ! 35
 O1	-5.9113989128	0.5088098396	7.3261699559
 H2	-6.7920417220	0.7840787378	7.1272384831
 H3	-5.6730329400	-0.1302753940	6.6737665670
FRAGNAME=H2ODFT ! 36
 O1	-2.2996531612	2.0117262884	3.9313352084
 H2	-2.2791621396	2.6093945001	4.6615757721
 H3	-1.6969634552	1.3143428251	4.1345589215
FRAGNAME=H2ODFT ! 37
 O1	-0.8373499666	-10.9821428058	-3.8994362478
 H2	-1.1038458822	-10.8761245267	-4.7986684237
 H3	-1.3319366918	-11.7078945691	-3.5536808373
FRAGNAME=H2ODFT ! 38
 O1	-5.9084425632	-1.6702758004	-2.5797663070
 H2	-6.1159639129	-2.5606722265	-2.3452294270
 H3	-6.7056459888	-1.2821308822	-2.9033226004
FRAGNAME=H2ODFT ! 39
 O1	8.2637288499	-1.7283541876	-5.0043726116
 H2	8.0769299297	-2.3056150420	-4.2813549608
 H3	9.1653535895	-1.4640104768	-4.9145189221
FRAGNAME=H2ODFT ! 40
 O1	1.7793081166	2.9254737508	-9.6035794964
 H2	2.7098561916	3.0535255824	-9.5110513236
 H3	1.3828818979	3.7813317417	-9.5684823952
FRAGNAME=H2ODFT ! 41
 O1	-0.9222730860	-4.1177578599	8.1674962506
 H2	-0.9797029780	-3.3860299886	8.7609223906
 H3	-0.3399785064	-4.7448830805	8.5656487769
FRAGNAME=H2ODFT ! 42
 O1	7.0877202582	-5.8233550070	-7.2581872932
 H2	7.8267669104	-5.3877724070	-6.8645424041
 H3	6.7728883196	-6.4489045428	-6.6253784099
FRAGNAME=H2ODFT ! 43
 O1	-2.7154861445	6.5622431753	3.0083476117
 H2	-2.4395855273	6.1002668422	3.7838056513
 H3	-3.6535214421	6.4707475479	2.9573889582
FRAGNAME=H2ODFT ! 44
 O1	8.5627795159	3.5539957809	-5.6320768741
 H2	8.6859020983	3.8260775906	-4.7367050115
 H3	7.7254041591	3.1202227845	-5.6710890922
FRAGNAME=H2ODFT ! 45
 O1	5.5303483837	7.7408459191	-4.1614957883
 H2	5.1708990653	8.4728443893	-3.6862559742
 H3	5.0150088742	6.9856834485	-3.9269040434
FRAGNAME=H2ODFT ! 46
 O1	-6.8089740697	1.0006260414	-0.6979601699
 H2	-6.4189682833	1.5072822381	-0.0036450834
 H3	-6.4029948757	1.2839813300	-1.5015577862
FRAGNAME=H2ODFT ! 47
 O1	-4.7813371804	2.9030467358	7.2931782404
 H2	-5.0981421972	2.0890865631	7.6509237814
 H3	-5.0331865293	3.5818079406	7.8987635655
FRAGNAME=H2ODFT ! 48
 O1	-8.3390233153	-1.7014717975	-5.9494325047
 H2	-7.6473872412	-1.2893387427	-6.4420422293
 H3	-8.1820180814	-2.6314176211	-5.9872290151
FRAGNAME=H2ODFT ! 49
 O1	0.4451031415	9.1265807547	-6.7844490859
 H2	0.8174555944	9.9736414121	-6.5981151191
 H3	1.1058867885	8.4870433048	-6.5717632243
FRAGNAME=H2ODFT ! 50
 O1	-4.0530904955	-6.3349910817	-5.2762262693
 H2	-3.6529549308	-5.5132759409	-5.0405268609
 H3	-3.5361785925	-7.0139882180	-4.8729355215
FRAGNAME=H2ODFT ! 51
 O1	-2.2372295664	8.5609498287	-0.4816687820
 H2	-2.5150803137	9.2596893396	-1.0521427188
 H3	-2.9200954951	7.9095641862	-0.4980798313
FRAGNAME=H2ODFT ! 52
 O1	4.5301677858	-8.9493887248	-5.5076012410
 H2	3.9621651347	-9.2235953918	-6.2097850814
 H3	4.0857361744	-9.1587807415	-4.7016769395
FRAGNAME=H2ODFT ! 53
 O1	-10.0308127026	2.2458016733	4.5650466532
 H2	-9.4716435647	1.6837594622	5.0772154565
 H3	-9.6055200859	3.0874375566	4.5243811268
FRAGNAME=H2ODFT ! 54
 O1	1.3915602461	-2.0584398334	7.3751574314
 H2	0.6564608362	-2.1537863388	7.9594658739
 H3	1.1205888093	-2.4039765913	6.5396592065
FRAGNAME=H2ODFT ! 55
 O1	9.1489606221	-4.4354796307	-6.0734351612
 H2	8.6917463797	-3.6323053711	-5.8817460893
 H3	9.4448726256	-4.7830041710	-5.2472746229
FRAGNAME=H2ODFT ! 56
 O1	7.9107923490	-4.0830545395	6.2244450511
 H2	8.3519231329	-4.7770459852	5.7611331053
 H3	8.2341870675	-3.2709010037	5.8684942894
FRAGNAME=H2ODFT ! 57
 O1	-6.3136895342	-4.6946885895	-8.3849461960
 H2	-6.6116339779	-4.6186541590	-7.4925750136
 H3	-7.0819490979	-4.6546183790	-8.9318009063
FRAGNAME=H2ODFT ! 58
 O1	6.1962818961	-6.9474318743	-5.1914151365
 H2	6.7974724333	-7.2968112843	-4.5531499728
 H3	5.5337864649	-7.6055360003	-5.3288095182
FRAGNAME=H2ODFT ! 59
 O1	-1.4333617887	-10.5978594389	0.1572864840
 H2	-2.2833293021	-10.9970934780	0.0621767503
 H3	-1.5551441000	-9.8219219086	0.6807064598
FRAGNAME=H2ODFT ! 60
 O1	3.0476559594	-4.6308741601	1.5178234397
 H2	2.5192903450	-5.2200412352	1.0034399364
 H3	3.7432868019	-4.3293054414	0.9556557671
FRAGNAME=H2ODFT ! 61
 O1	3.2908718356	-0.7270270853	2.7555644771
 H2	2.7506226979	-1.4465973039	2.4705591722
 H3	2.7729279604	0.0560593637	2.6586717032
FRAGNAME=H2ODFT ! 62
 O1	0.9332791793	4.9196868961	-6.5279387255
 H2	0.8770383636	4.8575838185	-7.4680762859
 H3	1.5696244174	4.2797971604	-6.2513807426
FRAGNAME=H2ODFT ! 63
 O1	7.8892341849	6.9676389286	-3.1507052988
 H2	8.5944375260	7.5124897927	-3.4616783483
 H3	7.1303647567	7.1844312422	-3.6683893120
FRAGNAME=H2ODFT ! 64
 O1	-7.9294394885	-0.9765102298	3.6598637308
 H2	-7.9279003584	-1.7432966100	4.2102406311
 H3	-8.6233931028	-1.0952103727	3.0312007754
FRAGNAME=H2ODFT ! 65
 O1	-2.5713466610	-3.3521205841	6.3559408441
 H2	-2.5606209404	-2.4215732130	6.5135638222
 H3	-2.0630882448	-3.7498095398	7.0447044690
FRAGNAME=H2ODFT ! 66
 O1	-2.3001724577	-0.0052756835	-3.3524554585
 H2	-3.0454967564	0.3440594457	-3.8143375983
 H3	-2.6013247478	-0.2391982141	-2.4890517281
FRAGNAME=H2ODFT ! 67
 O1	8.4672157265	-2.4435077768	-0.3091906226
 H2	7.9681856486	-2.9848277534	0.2814193322
 H3	8.6303447521	-1.6299787999	0.1407404599
FRAGNAME=H2ODFT ! 68
 O1	-3.9422401763	-0.2499945853	-1.1857476296
 H2	-4.7149751353	-0.6481415675	-1.5534949858
 H3	-3.9943649991	0.6724710706	-1.3786687815
FRAGNAME=H2ODFT ! 69
 O1	-0.4221911150	0.1987357272	4.7163602415
 H2	-0.2528363583	-0.3564298205	3.9720561135
 H3	0.4145618799	0.5229769380	5.0089188113
FRAGNAME=H2ODFT ! 70
 O1	6.0337274602	-6.4686104095	2.9141314197
 H2	6.7677360481	-6.8248620310	3.3886781813
 H3	5.4409147009	-6.1142928870	3.5574902461
FRAGNAME=H2ODFT ! 71
 O1	5.3417284380	1.1053262297	7.6305637398
 H2	5.3093178452	2.0448828140	7.5465314102
 H3	4.4475396424	0.8044867437	7.6588560631
FRAGNAME=H2ODFT ! 72
 O1	7.9306623430	5.4766955967	-7.4841080767
 H2	8.1769136950	4.7594759720	-6.9221163187
 H3	8.6940606787	5.6963911374	-7.9938485057
FRAGNAME=H2ODFT ! 73
 O1	-5.5963778486	-8.1389598317	1.4537438282
 H2	-6.0378782932	-7.4381113011	1.9062558704
 H3	-4.9487196225	-7.7369399451	0.8971494636
FRAGNAME=H2ODFT ! 74
 O1	6.1175154471	-3.5561755199	8.2341905751
 H2	6.7954223874	-3.9081041246	7.6796936031
 H3	6.2643400122	-3.9069197510	9.0980768443
FRAGNAME=H2ODFT ! 75
 O1	-1.6743655577	10.1929816778	4.2852861931
 H2	-2.0305321792	9.7688309288	3.5210087997
 H3	-0.8336250581	10.5414721561	4.0351097497
FRAGNAME=H2ODFT ! 76
 O1	8.4541243145	-6.1190760750	4.3805195352
 H2	9.0792694299	-6.7671584346	4.6634705811
 H3	8.7998707316	-5.7353937466	3.5905032439
FRAGNAME=H2ODFT ! 77
 O1	2.1063205001	2.1386168136	-3.3726994448
 H2	2.7335028542	2.0471930719	-2.6732979518
 H3	2.5538661552	1.9061188604	-4.1705252670
FRAGNAME=H2ODFT ! 78
 O1	3.4896601121	3.9246404653	-5.8541165534
 H2	3.8922183793	4.3714865266	-5.1266869052
 H3	3.7188416790	3.0126486120	-5.7727216961
FRAGNAME=H2ODFT ! 79
 O1	-7.3181392767	2.7443858074	-6.8191636611
 H2	-7.1367281129	3.5205219583	-6.3136133477
 H3	-8.1584304025	2.4241164304	-6.5324289325
FRAGNAME=H2ODFT ! 80
 O1	3.3771529925	-6.3306941423	-2.6475082620
 H2	3.5029253292	-7.1787483281	-3.0423042491
 H3	3.9377171955	-5.7296031295	-3.1115511727
FRAGNAME=H2ODFT ! 81
 O1	1.4858020292	1.7565469008	5.8679351952
 H2	1.8587074920	2.6029624632	5.6797845477
 H3	2.1257264223	1.2852953115	6.3771474941
FRAGNAME=H2ODFT ! 82
 O1	4.2812252099	-0.5956034091	-6.6976300157
 H2	4.0672428339	-0.4181684115	-7.5996315781
 H3	5.2136747331	-0.7377735220	-6.6629313147
FRAGNAME=H2ODFT ! 83
 O1	-5.1578254197	6.3234652341	2.0026875646
 H2	-6.0488655279	6.6082438473	2.1284934512
 H3	-4.8909660221	6.6348645271	1.1525728686
FRAGNAME=H2ODFT ! 84
 O1	1.2103087799	-10.3305090459	-0.3209527370
 H2	1.0318705910	-9.7679744313	-1.0575619104
 H3	0.3809570407	-10.6857697040	-0.0437452123
FRAGNAME=H2ODFT ! 85
 O1	1.9428796640	10.1189559439	-3.9805035027
 H2	2.3775166507	10.3946067694	-4.7716961253
 H3	1.4377163061	10.8564171259	-3.6774532748
FRAGNAME=H2ODFT ! 86
 O1	-3.8732872463	-7.5120753207	-0.4342984108
 H2	-4.0795212215	-7.8388271821	-1.2954483528
 H3	-3.1159700515	-7.9904591162	-0.1368121680
FRAGNAME=H2ODFT ! 87
 O1	1.7493235076	8.2798733921	4.3374748423
 H2	1.5729595871	9.2070953173	4.3432819938
 H3	1.0947176479	7.8757881365	4.8843612369
FRAGNAME=H2ODFT ! 88
 O1	-5.8802529504	3.2815027803	4.6816106949
 H2	-5.3131258727	3.5012553242	5.4033822321
 H3	-5.3606963931	3.3529636992	3.8968605592
FRAGNAME=H2ODFT ! 89
 O1	-3.7373271134	-5.4706224021	5.2502611449
 H2	-3.5542537547	-4.5447033407	5.2442203482
 H3	-4.5837921820	-5.5771627597	5.6540240630
FRAGNAME=H2ODFT ! 90
 O1	2.7899646615	-9.3873109379	-7.6134200773
 H2	1.9942129285	-9.8932708750	-7.6541898779
 H3	3.3225877751	-9.6601099911	-8.3433322299
FRAGNAME=H2ODFT ! 91
 O1	-6.9897221439	-1.7550249456	0.8502133277
 H2	-7.2280772789	-1.2253985071	1.5942302090
 H3	-6.4741597210	-1.2065398060	0.2807944186
FRAGNAME=H2ODFT ! 92
 O1	1.7331530756	-3.9374279612	-3.9306217285
 H2	1.8375528379	-3.1163048621	-4.3842030339
 H3	2.5122914144	-4.4422886666	-4.1007321979
FRAGNAME=H2ODFT ! 93
 O1	2.9642572830	1.5011724688	-5.8156998319
 H2	2.1942048918	1.4249420316	-6.3561502819
 H3	3.4186701662	0.6758808199	-5.8729805383
FRAGNAME=H2ODFT ! 94
 O1	5.6824883058	1.9812020987	-8.8111249751
 H2	5.0666159019	1.2999740001	-9.0290880785
 H3	5.2241491272	2.8010892819	-8.9037999923
FRAGNAME=H2ODFT ! 95
 O1	-6.6181924127	-4.2125181466	-1.8073664317
 H2	-6.6203161605	-4.8872636246	-2.4673607373
 H3	-5.9670466860	-4.4585955705	-1.1699234162
FRAGNAME=H2ODFT ! 96
 O1	1.6115041059	-0.9621484724	-7.3373027567
 H2	1.6047556528	-1.5728127957	-8.0569707333
 H3	1.0093901950	-0.2709919798	-7.5623360762
FRAGNAME=H2ODFT ! 97
 O1	2.1224052848	1.6926154647	3.1256531971
 H2	1.9266115899	1.7968312889	4.0430856718
 H3	1.4519204826	2.1571042322	2.6507018634
FRAGNAME=H2ODFT ! 98
 O1	-3.1920289910	3.6277623628	-7.2199252846
 H2	-4.0540713888	3.2479572722	-7.2791659074
 H3	-3.2926572841	4.5539465728	-7.3713690358
FRAGNAME=H2ODFT ! 99
 O1	-1.0225039920	-9.4405841458	-5.9283471509
 H2	-0.1959311004	-9.0345629695	-5.7214594689
 H3	-1.2839150892	-9.1089219321	-6.7724696941
FRAGNAME=H2ODFT ! 100
 O1	2.1900825263	-8.6423722533	1.2851166032
 H2	1.7179214668	-9.2236298654	0.7105889913
 H3	1.6740924858	-8.5596057531	2.0711079766
FRAGNAME=H2ODFT ! 101
 O1	-4.8256694218	1.6052914124	-7.3120356712
 H2	-4.6228845636	0.7585897810	-7.6765258678
 H3	-5.7556501138	1.7293454240	-7.4151131646
FRAGNAME=H2ODFT ! 102
 O1	4.9421888903	-2.4753893690	-10.4106371892
 H2	5.6152259293	-2.1301154471	-10.9751595689
 H3	5.3648428842	-2.7204678506	-9.6030614382
FRAGNAME=H2ODFT ! 103
 O1	-9.3229090462	-2.2389468829	-0.2686474111
 H2	-9.5880259052	-1.6687323057	-0.9725272598
 H3	-8.3934925478	-2.1180911711	-0.1570350290
FRAGNAME=H2ODFT ! 104
 O1	-4.2597192285	-5.0269023842	-0.1823450780
 H2	-3.9979034490	-4.6645847988	0.6489532553
 H3	-4.1551426577	-5.9625692862	-0.1154896864
FRAGNAME=H2ODFT ! 105
 O1	8.2085828100	4.2222154995	-3.2645461552
 H2	8.6652257341	3.8083120938	-2.5496757724
 H3	8.2270424111	5.1508755803	-3.0968316627
FRAGNAME=H2ODFT ! 106
 O1	1.9909445307	6.2236664546	0.0938366989
 H2	1.8086999266	6.5230289178	0.9702198762
 H3	2.6676006619	6.7850967704	-0.2493992757
FRAGNAME=H2ODFT ! 107
 O1	0.8042421753	-3.0936846367	5.0215723661
 H2	1.0700712448	-2.7430055257	4.1865648689
 H3	1.3454826027	-3.8499269430	5.1829254803
FRAGNAME=H2ODFT ! 108
 O1	-6.1335556023	-5.7248861992	6.3969103505
 H2	-6.4582162877	-6.4415551551	5.8755088718
 H3	-6.1806522303	-6.0018414132	7.2979964574
FRAGNAME=H2ODFT ! 109
 O1	-7.5143173154	5.8786563754	-0.1432329974
 H2	-8.2906591187	5.4473672773	-0.4628602375
 H3	-7.7130397737	6.1850388589	0.7271218801
FRAGNAME=H2ODFT ! 110
 O1	7.1727566388	-2.3366717400	2.7716853395
 H2	7.6630010657	-1.8217530243	3.3924893119
 H3	6.4704661917	-2.7448403295	3.2523775325
FRAGNAME=H2ODFT ! 111
 O1	-3.7271845729	2.4374022744	-0.7004790229
 H2	-4.5241061942	2.9391643793	-0.7639547951
 H3	-3.1173980964	2.8182206536	-1.3120477184
FRAGNAME=H2ODFT ! 112
 O1	-4.1403739262	-6.8287772635	-7.8302189391
 H2	-4.3983006485	-6.6628901821	-6.9375634984
 H3	-4.7741496922	-6.3969564501	-8.3804348215
FRAGNAME=H2ODFT ! 113
 O1	4.1647964564	2.2407453773	-1.5942974503
 H2	4.7847761657	2.4657711393	-2.2694767001
 H3	4.5567587572	1.5489498438	-1.0857082769
FRAGNAME=H2ODFT ! 114
 O1	-2.2514672325	2.9300005253	1.4200814510
 H2	-2.3653707124	2.5572271330	2.2797002321
 H3	-2.7850503686	2.4211210508	0.8308368745
FRAGNAME=H2ODFT ! 115
 O1	8.4792439768	0.9046070678	2.9638084185
 H2	9.2283041882	0.6257176149	3.4658123303
 H3	7.7373070242	0.8791849171	3.5466992549
FRAGNAME=H2ODFT ! 116
 O1	-1.6257267885	3.8421862176	-1.8858976975
 H2	-1.0928991952	3.1492721300	-2.2420483346
 H3	-1.0691836387	4.6007360681	-1.8101329309
FRAGNAME=H2ODFT ! 117
 O1	8.7468427039	-0.0752322060	0.5373582354
 H2	8.3809812791	0.1151380542	1.3863476558
 H3	8.6414858532	0.7042100593	0.0155842010
FRAGNAME=H2ODFT ! 118
 O1	-10.1520540363	-1.1656841757	2.1222334232
 H2	-10.4303118113	-0.2739972484	1.9867879040
 H3	-9.9123543590	-1.5066730005	1.2753868371
FRAGNAME=H2ODFT ! 119
 O1	1.0533038373	10.8003911539	3.4776312857
 H2	1.2388815606	10.6454709138	2.5652502898
 H3	1.1762450954	11.7243132493	3.6263991000
FRAGNAME=H2ODFT ! 120
 O1	-0.0553380154	-6.5146610203	-8.8591934850
 H2	0.8818099373	-6.5986950745	-8.7845580599
 H3	-0.2224505898	-6.0410935639	-9.6583716290
FRAGNAME=H2ODFT ! 121
 O1	4.4167163760	7.4514645804	-0.6433978163
 H2	4.2183856403	7.8890823362	-1.4558226270
 H3	4.9683521840	6.7164936786	-0.8587908587
FRAGNAME=H2ODFT ! 122
 O1	4.4394879599	8.1975836409	-6.4585981994
 H2	4.9807174346	7.9397583841	-5.7295747107
 H3	4.8060965771	7.7890948550	-7.2264611351
FRAGNAME=H2ODFT ! 123
 O1	0.9994996700	-5.9295992755	8.7682990541
 H2	1.8335313428	-5.4890084469	8.8022010402
 H3	1.1139064129	-6.6846426940	8.2135928368
FRAGNAME=H2ODFT ! 124
 O1	6.1945789009	3.2314127059	0.5905113307
 H2	6.1755730082	2.4241628752	0.1017732200
 H3	5.6330966068	3.1085457366	1.3391900302
FRAGNAME=H2ODFT ! 125
 O1	2.4307298686	-6.6724957647	-7.7469938340
 H2	2.4276677094	-6.0076649790	-7.0770168912
 H3	2.4884083480	-7.5038920365	-7.3039002923
FRAGNAME=H2ODFT ! 126
 O1	-1.0809984909	-6.9138370786	-2.6906773386
 H2	-0.5647888320	-6.5335948707	-3.3833691205
 H3	-1.4452654910	-6.1956941404	-2.1982763575
FRAGNAME=H2ODFT ! 127
 O1	0.4633930009	3.1197015198	1.3625923774
 H2	0.8603592820	3.3674823830	0.5428967819
 H3	-0.3123084955	2.6257689103	1.1499983523
FRAGNAME=H2ODFT ! 128
 O1	6.0201369001	0.8236531578	-0.5820319883
 H2	6.0683882315	0.1766498082	0.1034874702
 H3	6.6991989820	0.6124867104	-1.2026460986
FRAGNAME=H2ODFT ! 129
 O1	-9.0864746376	-4.8778168812	-0.6106928205
 H2	-9.2736228569	-3.9641969750	-0.4652532628
 H3	-8.2285981912	-4.9200515509	-1.0020273186
FRAGNAME=H2ODFT ! 130
 O1	-6.7971382846	-7.7096340254	4.5660239480
 H2	-7.0930077701	-7.2903079401	3.7738716043
 H3	-6.2532228592	-8.4345610931	4.3023665752
FRAGNAME=H2ODFT ! 131
 O1	4.3313103551	9.1698365803	1.4546352107
 H2	4.6142802729	9.9798049403	1.0612426137
 H3	4.7000095848	8.4728977242	0.9357753427
FRAGNAME=H2ODFT ! 132
 O1	-2.8122917903	6.5094420057	-7.3862673357
 H2	-2.2399446743	6.7726350812	-8.0891376209
 H3	-2.2579297755	6.2421574668	-6.6706416055
FRAGNAME=H2ODFT ! 133
 O1	-7.5409438973	1.1973141841	5.2566172298
 H2	-6.8280431267	1.7121811632	4.9137427051
 H3	-7.6624585036	0.4732411271	4.6634639082
FRAGNAME=H2ODFT ! 134
 O1	-0.4460385712	-1.4893546055	9.1355087575
 H2	-0.8372207826	-0.6475733376	8.9644554671
 H3	-0.5438203462	-1.6510597981	10.0602620267
FRAGNAME=H2ODFT ! 135
 O1	-7.8628702782	6.6800450583	2.4181844243
 H2	-8.1771625102	5.9327943072	2.9016253837
 H3	-8.4026396084	7.4123833398	2.6695967644
FRAGNAME=H2ODFT ! 136
 O1	-6.2840835858	1.7691629909	1.6323951885
 H2	-5.8451604475	2.5805558177	1.8320614432
 H3	-5.8689247390	1.1007370724	2.1536709097
FRAGNAME=H2ODFT ! 137
 O1	1.5243504573	-2.6399124912	2.4940261923
 H2	0.6879361235	-2.3672676442	2.1520403695
 H3	1.8219997456	-3.3502767283	1.9484384309
FRAGNAME=H2ODFT ! 138
 O1	-9.1407190211	0.5323296967	-1.4808023998
 H2	-9.6032243838	1.3275109439	-1.2694874030
 H3	-8.3878984050	0.4971836446	-0.9125556847
FRAGNAME=H2ODFT ! 139
 O1	4.8585409528	2.5440377075	2.9754181060
 H2	3.9646248002	2.2439218623	3.0169252838
 H3	5.3505359050	2.0158861295	3.5835918740
FRAGNAME=H2ODFT ! 140
 O1	-9.3320719149	4.1345553660	-1.1032228667
 H2	-9.0288780984	3.6447405641	-0.3555374896
 H3	-8.9485945613	3.7311048199	-1.8654900310
FRAGNAME=H2ODFT ! 141
 O1	0.7316693465	7.1314621462	2.2313663487
 H2	-0.0345151367	7.6462041092	2.0341849528
 H3	1.2426601459	7.6308746934	2.8480947850
FRAGNAME=H2ODFT ! 142
 O1	1.7001077120	4.7850855700	-3.1453364434
 H2	1.6531272192	4.0046931579	-3.6741643652
 H3	1.5336808270	4.5198337675	-2.2549309022
FRAGNAME=H2ODFT ! 143
 O1	-1.5409808382	-5.7034087515	-6.7364687329
 H2	-2.4322258156	-5.9916695054	-6.8525143364
 H3	-1.0353598231	-6.1001459339	-7.4277179291
FRAGNAME=H2ODFT ! 144
 O1	2.2053459505	-6.3192117567	-0.2302690931
 H2	2.6365894341	-6.2242651840	-1.0644709032
 H3	2.4527071058	-7.1648241432	0.1083023240
FRAGNAME=H2ODFT ! 145
 O1	-1.4954395009	8.8662805599	-5.2399046633
 H2	-1.0546431143	8.5165422907	-4.4821051233
 H3	-0.9072559165	8.7576644826	-5.9700560675
FRAGNAME=H2ODFT ! 146
 O1	3.1414849016	10.5331315023	-6.3611805645
 H2	3.7769445522	9.8352364640	-6.3646449165
 H3	3.5004499913	11.2294876651	-6.8875935324
FRAGNAME=H2ODFT ! 147
 O1	5.5981544930	-3.4865413146	4.7038126104
 H2	5.1106922314	-4.2627319310	4.4784526210
 H3	6.3234920285	-3.7674203400	5.2384815613
FRAGNAME=H2ODFT ! 148
 O1	-0.7664202735	7.6860655793	-9.0613425552
 H2	-0.5205789541	8.2692248640	-8.3610813552
 H3	-1.0431119185	8.2290866935	-9.7820701439
FRAGNAME=H2ODFT ! 149
 O1	-7.9996178051	-0.6307263046	-3.5760848679
 H2	-8.6929555558	-0.2159367480	-3.0881188435
 H3	-8.3784488159	-0.9249663225	-4.3889737477
FRAGNAME=H2ODFT ! 150
 O1	6.6734260106	-7.4143012923	-1.0620281976
 H2	5.9043033308	-7.8692098764	-0.7580760018
 H3	6.9173868890	-6.8085573161	-0.3805329452
FRAGNAME=H2ODFT ! 151
 O1	-2.8655910262	-8.2084685741	-4.1134186671
 H2	-2.5047745136	-8.8908029845	-4.6566586235
 H3	-2.1709057492	-7.9196490843	-3.5434413677
FRAGNAME=H2ODFT ! 152
 O1	2.3359880129	-5.1476802149	5.6948147207
 H2	2.7846225044	-4.8602893835	6.4739245058
 H3	1.6810763632	-5.7681962358	5.9721755926
FRAGNAME=H2ODFT ! 153
 O1	-1.7867270994	-8.1729397998	1.1479993134
 H2	-2.2301629291	-7.9228410666	1.9427909483
 H3	-1.2538982766	-7.4372501425	0.8916155619
FRAGNAME=H2ODFT ! 154
 O1	6.5504512175	-5.2865111480	0.6849381543
 H2	5.9335075364	-4.6317787056	0.3993083629
 H3	6.1789625510	-5.6932796191	1.4513675614
FRAGNAME=H2ODFT ! 155
 O1	-6.1190345883	-3.5826526190	2.5586738713
 H2	-6.5100510734	-2.9423830319	1.9859266165
 H3	-5.2016098086	-3.6181682388	2.3397015719
FRAGNAME=H2ODFT ! 156
 O1	0.5313306101	4.7913055357	3.2574624270
 H2	0.3933563591	4.2832437675	2.4740629129
 H3	0.6104377911	5.6919123988	2.9863023546
FRAGNAME=H2ODFT ! 157
 O1	-5.8117982901	4.0026104260	-1.2146756632
 H2	-6.3995078156	3.8195356598	-1.9301891829
 H3	-6.1395960999	4.7768016091	-0.7856592750
FRAGNAME=H2ODFT ! 158
 O1	2.1636929663	3.8159173890	-0.6202978817
 H2	3.0175302815	3.4448474100	-0.7756921014
 H3	2.3019391990	4.6411896884	-0.1836148564
FRAGNAME=H2ODFT ! 159
 O1	-6.2046811346	1.4266618983	-3.1669723741
 H2	-6.7370870748	0.6858076384	-3.4089586031
 H3	-5.4183998666	1.3770050654	-3.6867554262
FRAGNAME=H2ODFT ! 160
 O1	-4.6079930150	0.5285591964	3.1710245341
 H2	-4.7976455498	-0.0513415359	3.8911811219
 H3	-3.9790940708	1.1572813154	3.4873678117
FRAGNAME=H2ODFT ! 161
 O1	3.9969953548	-0.1452642491	-9.2306858441
 H2	4.2784305482	-0.8771885041	-9.7560043860
 H3	3.0927331676	0.0138841056	-9.4494554757
FRAGNAME=H2ODFT ! 162
 O1	2.2507332387	4.1848887603	5.3041705810
 H2	3.1346100139	4.3583033184	5.0220931239
 H3	1.6924353148	4.3430668552	4.5597502878
FRAGNAME=H2ODFT ! 163
 O1	4.6254532030	-1.0450522905	4.9674497484
 H2	5.0007527395	-1.9110796868	4.9624236515
 H3	4.0491280902	-0.9948161536	4.2216587925
FRAGNAME=H2ODFT ! 164
 O1	-1.3434703673	2.7928187483	-8.7703992369
 H2	-2.1657610586	2.9444789833	-8.3325457840
 H3	-1.5116034264	2.1626457209	-9.4526687466
FRAGNAME=H2ODFT ! 165
 O1	-4.2137762759	-2.5818908379	-9.0501416260
 H2	-4.6440207235	-3.3637259210	-8.7427297328
 H3	-3.4355836635	-2.8615567388	-9.5052039248
FRAGNAME=H2ODFT ! 166
 O1	-1.5350541848	-0.0068830637	-6.6498359388
 H2	-1.1557178683	0.8249071179	-6.4150860574
 H3	-1.2602830553	-0.6256331319	-5.9921676079
FRAGNAME=H2ODFT ! 167
 O1	-5.0628341833	5.7586938265	-4.5303639303
 H2	-4.6395970850	6.5367067235	-4.8566226381
 H3	-4.3999642711	5.0883603621	-4.4841580884
FRAGNAME=H2ODFT ! 168
 O1	-6.8597056308	-4.1108635104	-5.9290766941
 H2	-7.0458187647	-4.6714501259	-5.1928817460
 H3	-6.0724833814	-3.6357015959	-5.7160491404
FRAGNAME=H2ODFT ! 169
 O1	4.0615663186	-6.3968472687	-10.0756823759
 H2	4.9901472235	-6.4313571219	-9.9100773432
 H3	3.6329905449	-6.5109089058	-9.2425010013
FRAGNAME=H2ODFT ! 170
 O1	9.4985978741	2.9743452106	-1.3927926941
 H2	9.2683127475	3.0722853504	-0.4827075639
 H3	10.3379450971	2.5432241355	-1.4153606499
FRAGNAME=H2ODFT ! 171
 O1	0.7093697209	-8.9003739952	-2.4563798046
 H2	0.2112207526	-8.1015074666	-2.3890126815
 H3	0.1802107794	-9.5095698556	-2.9460221973
FRAGNAME=H2ODFT ! 172
 O1	1.2913935781	0.4556495330	-10.2312621268
 H2	0.4192273981	0.1575915260	-10.0278757161
 H3	1.2887467579	1.3937155719	-10.1268420410
FRAGNAME=H2ODFT ! 173
 O1	10.4882164760	-0.6029927918	-5.5074456665
 H2	10.3489050224	0.2372471102	-5.9142228533
 H3	10.8951130007	-1.1544593480	-6.1564435934
FRAGNAME=H2ODFT ! 174
 O1	-1.8781763898	-3.5108264294	3.7608099200
 H2	-1.2214789456	-4.1848134092	3.6875400629
 H3	-2.0638170801	-3.4118253876	4.6809266418
FRAGNAME=H2ODFT ! 175
 O1	-0.7431920059	-3.2781716985	-7.0364533729
 H2	-0.8744145329	-2.6750011725	-6.3224194664
 H3	-1.1002482433	-4.1071407572	-6.7604106266
FRAGNAME=H2ODFT ! 176
 O1	-2.4265482723	3.2684573398	6.3414834010
 H2	-1.6857284258	3.0264462088	6.8739259052
 H3	-3.1990536577	3.0065572975	6.8163752311
FRAGNAME=H2ODFT ! 177
 O1	8.7519147643	-4.3788933457	1.9669073107
 H2	8.1883657993	-4.8086352210	1.3435190376
 H3	8.2046000819	-3.8006225602	2.4737879587
FRAGNAME=H2ODFT ! 178
 O1	-2.3522248710	0.3869411448	8.6574441591
 H2	-3.1987094163	0.4870486315	9.0628092533
 H3	-1.9307268073	1.2305064639	8.6976360564
FRAGNAME=H2ODFT ! 179
 O1	1.1653518096	-8.1124312361	-5.4459552933
 H2	1.7164160342	-8.2913168183	-4.7008334090
 H3	0.8013790861	-7.2516598905	-5.3137622501
FRAGNAME=H2ODFT ! 180
 O1	5.8373996910	3.1162426345	-3.5827375337
 H2	5.7936071019	3.0876524555	-4.5251510652
 H3	6.6054185118	3.6185228601	-3.3619658879
FRAGNAME=H2ODFT ! 181
 O1	3.3681228284	-3.6273786166	7.5132134467
 H2	2.9172050994	-2.8063125186	7.6289809648
 H3	4.2145632142	-3.5316973604	7.9197380147
FRAGNAME=H2ODFT ! 182
 O1	8.8255395567	3.2233717517	1.3692594194
 H2	8.9473500143	2.5599774996	2.0295235581
 H3	7.9089054155	3.4483307865	1.3765900524
FRAGNAME=H2ODFT ! 183
 O1	-1.5344039061	8.5133472585	1.9622920667
 H2	-2.0902212604	7.8171395033	2.2741258127
 H3	-1.8715222507	8.7728922322	1.1197565581
FRAGNAME=H2ODFT ! 184
 O1	1.9588688206	7.7085190856	-2.9194358457
 H2	1.9813616014	8.3513154518	-3.6102218916
 H3	1.5271044196	6.9467071830	-3.2717149708
FRAGNAME=H2ODFT ! 185
 O1	7.9212152791	0.4094391648	-8.5795219193
 H2	7.5492430078	-0.2803015124	-8.0534298341
 H3	7.2353354255	1.0420638560	-8.7217656574
FRAGNAME=H2ODFT ! 186
 O1	-3.1342684096	-7.4687043447	3.4969038145
 H2	-3.7954654261	-8.0584095858	3.8223952707