 $CONTRL SCFTYP=RHF RUNTYP=MD COORD=UNIQUE
DFTTYP=CAMB3LYP MAXIT=200 ICHARG=0 MULT=1 $END
 $MD KEVERY=10 PROD=.T. NVTNH=2 MBT=.T. MBR=.T. 
BATHT=298 RSTEMP=.T. DTEMP=25 NSTEPS=50000
SSBP=.T. SFORCE=1.0 DROFF=11.9 $END
 $DFT DC=.F. $END
 $SYSTEM MWORDS=1000 MEMDDI=1000 $END
 $SCF DIRSCF=.T. $END
 $BASIS GBASIS=N311 NGAUSS=6 NDFUNC=1 NPFUNC=1 
    DIFFSP=.TRUE. DIFFS=.TRUE. POLAR=POPN311 $END
 $DATA
MD INPUT
C1 1
N	7.0	-0.4370586198	-2.0882679692	-1.3049874402
C	6.0	0.7213409982	-1.6066814267	-0.7617890411
C	6.0	1.9868110903	-1.6494272811	-1.3303414932
C	6.0	3.1340058801	-1.1235395201	-0.6938405085
C	6.0	3.0819251888	-0.5919991734	0.6161026108
C	6.0	1.8181948206	-0.6197753078	1.2294486324
C	6.0	0.6819408593	-0.9841556198	0.5254536115
H	1.0	-0.2417353358	-0.9516918493	1.0682467938
H	1.0	1.8082506062	-0.1562266392	2.2184260241
H	1.0	3.9504843497	-0.1224961916	1.0911508767
H	1.0	4.0540589193	-1.2285733511	-1.2681173211
H	1.0	2.2393740222	-2.1122315011	-2.2789432229
H	1.0	-1.1368959700	-2.3114484690	-0.6422380991
H	1.0	-0.3008897291	-2.6556649859	-2.1474667180
 $END

 $EFRAG
COORD=CART  POSITION=OPTIMIZE
FRAGNAME=H2ODFT ! 1
 O1	-5.8966463301	1.5334275476	-5.0683313893
 H2	-5.5663611600	1.3113800703	-5.9241848102
 H3	-5.8208583592	0.7561594121	-4.5382475443
FRAGNAME=H2ODFT ! 2
 O1	0.1668897040	3.0665176964	-4.6660171397
 H2	0.0346977659	3.9932361677	-4.7868336140
 H3	0.7974228908	2.9708741200	-3.9702020344
FRAGNAME=H2ODFT ! 3
 O1	2.6357781172	-6.4407178882	-4.0522194861
 H2	2.5973208289	-5.8832750646	-4.8129145562
 H3	2.1041578273	-7.1969541085	-4.2429158427
FRAGNAME=H2ODFT ! 4
 O1	-3.1402184631	-4.8294502811	2.4418764859
 H2	-2.6054262955	-4.1174598351	2.7548387782
 H3	-2.8769829184	-5.5980152945	2.9223900884
FRAGNAME=H2ODFT ! 5
 O1	0.2720112895	-1.9139806318	-9.0837369613
 H2	0.4189784583	-2.7877651634	-8.7584990514
 H3	1.0753022808	-1.6393935364	-9.4962947932
FRAGNAME=H2ODFT ! 6
 O1	-1.9012563369	0.6544984879	2.4220419877
 H2	-2.6336652895	0.8974985652	2.9655551364
 H3	-2.2602800774	0.2574647034	1.6446459613
FRAGNAME=H2ODFT ! 7
 O1	2.1407442952	5.2768751042	5.9488132756
 H2	1.4898282713	5.4256162760	6.6159435834
 H3	1.6760820052	5.1823791718	5.1327018071
FRAGNAME=H2ODFT ! 8
 O1	2.6504297496	-4.4677718422	-6.0059429192
 H2	3.3698681444	-4.0221743470	-6.4239497643
 H3	2.0326571204	-3.8025864985	-5.7475558227
FRAGNAME=H2ODFT ! 9
 O1	6.9513809698	-4.2498184103	0.4385607037
 H2	6.8379439142	-3.7589956311	1.2367483306
 H3	6.8564494020	-3.6366998419	-0.2727423769
FRAGNAME=H2ODFT ! 10
 O1	-3.9745971344	-6.5819131962	-4.9462276098
 H2	-3.1578998542	-6.8082291255	-4.5306976991
 H3	-4.5091920157	-7.3597102918	-4.9353443684
FRAGNAME=H2ODFT ! 11
 O1	-4.6351280869	6.8221298834	5.0414510479
 H2	-3.7950516625	6.4503685799	5.2581157396
 H3	-4.6192335924	7.7186257429	5.3362747125
FRAGNAME=H2ODFT ! 12
 O1	-7.3710908413	-2.6395263211	-2.3092745261
 H2	-6.8181509735	-3.1675956567	-1.7558499751
 H3	-7.8559605230	-2.0646330935	-1.7389433742
FRAGNAME=H2ODFT ! 13
 O1	-0.9507733734	-4.4384167156	-5.7441897244
 H2	-0.5356585439	-4.0173563178	-5.0084817159
 H3	-1.8629337661	-4.1975581904	-5.7153966182
FRAGNAME=H2ODFT ! 14
 O1	2.4471647433	-5.3037654541	2.8296590765
 H2	2.7829099354	-4.8622188116	2.0659901805
 H3	2.9143888247	-4.9550990265	3.5719607902
FRAGNAME=H2ODFT ! 15
 O1	-1.4513765215	-2.8923542347	2.5248757905
 H2	-0.7715760537	-3.4216040923	2.1393315436
 H3	-1.6155867326	-2.1824343626	1.9249364303
FRAGNAME=H2ODFT ! 16
 O1	3.4764045782	-1.0591121288	-6.9484954715
 H2	2.6167217318	-0.9764857571	-6.5677110964
 H3	4.0036823822	-0.3681773889	-6.5804387414
FRAGNAME=H2ODFT ! 17
 O1	5.2092682750	-6.4234938683	-3.2109324252
 H2	5.2019540700	-6.0972143328	-2.3252876763
 H3	4.3078586023	-6.5478809825	-3.4616651555
FRAGNAME=H2ODFT ! 18
 O1	4.5365905224	3.8183532426	6.3362529467
 H2	3.6233130604	4.0389222919	6.4265415167
 H3	4.7165045169	3.7814053435	5.4104320887
FRAGNAME=H2ODFT ! 19
 O1	4.5725994813	1.0344517978	3.5416636229
 H2	5.1624780235	0.5913886909	2.9529218774
 H3	4.4850742298	0.4838273116	4.3032609309
FRAGNAME=H2ODFT ! 20
 O1	-2.7249203108	-0.4319152045	-2.2059805181
 H2	-2.2662265673	0.1524020066	-2.7882621516
 H3	-2.7083846257	-1.2850790626	-2.6093617973
FRAGNAME=H2ODFT ! 21
 O1	0.2625547025	8.6805523797	1.3169137105
 H2	0.2428963810	9.5570696556	1.6664984206
 H3	1.0565599407	8.2800788044	1.6332285082
FRAGNAME=H2ODFT ! 22
 O1	7.7519468413	-2.3322491096	-3.8767907687
 H2	7.2346911536	-3.1058163301	-4.0346475504
 H3	7.2997217605	-1.6144450989	-4.2904673732
FRAGNAME=H2ODFT ! 23
 O1	-1.5814707653	3.9164702078	3.9137187912
 H2	-2.1520496880	3.5365576089	3.2648855581
 H3	-2.0259729417	4.6762391720	4.2543760828
FRAGNAME=H2ODFT ! 24
 O1	1.6584498255	8.7781366466	6.1511476344
 H2	2.5115605416	8.4211706933	5.9623200186
 H3	1.7440893870	9.7175298009	6.1182110087
FRAGNAME=H2ODFT ! 25
 O1	0.6192845078	-8.3481730123	-3.6785737984
 H2	0.6326947277	-8.1189442450	-2.7630669484
 H3	0.8066932764	-9.2718283150	-3.7297332486
FRAGNAME=H2ODFT ! 26
 O1	0.4593768240	-3.3947837866	-3.5971550173
 H2	0.9412159033	-2.6762952758	-3.9746253018
 H3	1.0968596147	-3.9839474254	-3.2265064607
FRAGNAME=H2ODFT ! 27
 O1	-4.7219053226	-2.2927056038	3.6770902182
 H2	-4.7757605183	-2.5114262001	2.7604990483
 H3	-5.4875254426	-2.6600747109	4.0890904912
FRAGNAME=H2ODFT ! 28
 O1	4.4802722002	-0.4393540508	-3.3941678589
 H2	5.2388446641	-0.2539630599	-3.9243342965
 H3	4.4202614937	-1.3788075013	-3.3255793506
FRAGNAME=H2ODFT ! 29
 O1	3.5845534546	-8.0968538493	-0.1289795039
 H2	4.0649378385	-8.8100436349	-0.5181704951
 H3	4.0188367794	-7.3014057873	-0.3926816630
FRAGNAME=H2ODFT ! 30
 O1	-0.1174645368	-5.0520576858	2.2711668934
 H2	0.7034495897	-5.3600571981	2.6206161044
 H3	-0.7674288800	-5.6987130886	2.4953578754
FRAGNAME=H2ODFT ! 31
 O1	2.3605371971	0.8619415773	-4.1945627944
 H2	3.1514505773	0.4591064281	-3.8735358148
 H3	2.6220984045	1.6406014013	-4.6594854412
FRAGNAME=H2ODFT ! 32
 O1	-0.1490166482	5.9584442457	-4.3859103585
 H2	0.6717554456	6.1782445806	-3.9749365920
 H3	-0.7786748182	5.8467515297	-3.6916958527
FRAGNAME=H2ODFT ! 33
 O1	-8.3449762861	0.5333596028	-3.2545616685
 H2	-8.0516573242	-0.1538881319	-3.8312184054
 H3	-7.8155446062	1.2913089664	-3.4445440700
FRAGNAME=H2ODFT ! 34
 O1	-2.6113283680	2.6569165743	-7.4042820030
 H2	-2.4980691584	3.3662384554	-8.0165836236
 H3	-2.6326842638	3.0427108952	-6.5431286359
FRAGNAME=H2ODFT ! 35
 O1	-4.6149816497	0.9583901371	-7.5238471806
 H2	-5.0523360883	1.1418445669	-8.3399011134
 H3	-3.7391536347	1.3013755928	-7.6023629078
FRAGNAME=H2ODFT ! 36
 O1	1.7606025379	1.5304220376	5.4251041579
 H2	2.5243805604	1.9268237697	5.0373062038
 H3	2.0130016411	1.2419840363	6.2876449779
FRAGNAME=H2ODFT ! 37
 O1	6.6509572528	0.1490403231	-0.1450039405
 H2	6.6636377800	-0.7018224586	-0.5533545065
 H3	5.9128728051	0.6127386251	-0.5070725618
FRAGNAME=H2ODFT ! 38
 O1	0.3967174632	-6.2454913140	5.5006194285
 H2	0.1487536910	-5.3651627058	5.7338874365
 H3	1.3186431499	-6.2233822800	5.2995157906
FRAGNAME=H2ODFT ! 39
 O1	1.7526766510	7.0606983910	2.7518242190
 H2	1.1795969065	6.3416619059	2.9650015948
 H3	2.2984468365	7.2060243754	3.5080607671
FRAGNAME=H2ODFT ! 40
 O1	-2.2182797178	5.7432047841	5.8063342949
 H2	-1.9713436862	5.3229515759	6.6145968089
 H3	-1.6261202939	6.4682208183	5.6855973030
FRAGNAME=H2ODFT ! 41
 O1	2.4645302375	2.3780115202	-8.3763356028
 H2	2.6123411241	3.2125818638	-8.7916941677
 H3	1.5813442606	2.3931643942	-8.0437226525
FRAGNAME=H2ODFT ! 42
 O1	1.0395101236	5.8086567538	-1.0422244735
 H2	1.7558591977	6.1236618291	-0.5144989195
 H3	0.5426167955	6.5667429561	-1.3054369053
FRAGNAME=H2ODFT ! 43
 O1	4.4306234422	1.4409818879	-1.3368028557
 H2	4.2735786692	0.7276282682	-1.9345837575
 H3	3.6728396060	1.4975988164	-0.7769487363
FRAGNAME=H2ODFT ! 44
 O1	-6.4390426543	0.2913854295	0.4345665162
 H2	-7.3634151468	0.4792139158	0.4008855276
 H3	-6.1484012617	0.1983542059	-0.4586026875
FRAGNAME=H2ODFT ! 45
 O1	-2.7194562543	4.5599639216	-5.4048536695
 H2	-3.4130467282	4.4340755513	-4.7771890882
 H3	-2.0647725329	5.0927634552	-4.9824885008
FRAGNAME=H2ODFT ! 46
 O1	-0.9191302382	2.4466238255	8.4240660551
 H2	-1.4526901338	1.6838249431	8.5800473251
 H3	-0.7344814553	2.4638966016	7.4986013437
FRAGNAME=H2ODFT ! 47
 O1	-0.3878750562	8.3421300394	-1.3182866768
 H2	-1.3220266361	8.3606556959	-1.4520629066
 H3	-0.2267122413	8.7348327954	-0.4752626283
FRAGNAME=H2ODFT ! 48
 O1	-1.5799451920	4.9705949667	8.2354574771
 H2	-1.5057350279	4.0452708247	8.4061810484
 H3	-2.3339049018	5.2752522327	8.7146308907
FRAGNAME=H2ODFT ! 49
 O1	4.0292140137	-2.5034463261	5.0170793590
 H2	4.1201148388	-3.2825719578	5.5420353038
 H3	3.1036767565	-2.3361602416	4.9378669519
FRAGNAME=H2ODFT ! 50
 O1	-0.4188117568	-1.3980785545	9.0984557673
 H2	-1.0393371707	-0.7475418427	8.8110037688
 H3	0.3465608371	-1.3019553420	8.5545407236
FRAGNAME=H2ODFT ! 51
 O1	-4.3469260813	3.3251264738	-3.7691642797
 H2	-5.0689829223	2.8314105118	-4.1237865033
 H3	-4.3778273142	3.2159106687	-2.8321501518
FRAGNAME=H2ODFT ! 52
 O1	-2.4484015529	-0.7090326069	-5.6031818072
 H2	-2.1784209421	0.0460627661	-5.1053666794
 H3	-1.7164916789	-0.9506489558	-6.1479826242
FRAGNAME=H2ODFT ! 53
 O1	-2.5186273175	0.3552035762	8.3953954985
 H2	-2.6918996975	0.2570075725	7.4727836184
 H3	-3.3344793455	0.1972454724	8.8429590805
FRAGNAME=H2ODFT ! 54
 O1	2.4807576226	-4.1226497728	7.5713133205
 H2	2.4320246853	-3.1849592339	7.4751883586
 H3	1.6551189362	-4.4014566691	7.9338956263
FRAGNAME=H2ODFT ! 55
 O1	5.0325573177	-2.8189813971	2.5041178497
 H2	4.6509828819	-2.8513231579	3.3668074896
 H3	5.4368639788	-1.9704593535	2.4179498765
FRAGNAME=H2ODFT ! 56
 O1	0.1401687714	1.9709377508	-7.1177327125
 H2	-0.7796136266	2.1558185617	-7.2211632699
 H3	0.3747216747	2.2414546281	-6.2444148959
FRAGNAME=H2ODFT ! 57
 O1	1.2538295678	-2.2198185064	5.2628181781
 H2	0.7893345991	-2.9930956383	5.5406047063
 H3	0.7004598748	-1.7813156327	4.6364192105
FRAGNAME=H2ODFT ! 58
 O1	6.6560672078	-2.4026053323	-1.1965175397
 H2	5.7949089442	-2.5650320846	-1.5470919958
 H3	7.2514173517	-2.4018152849	-1.9289354778
FRAGNAME=H2ODFT ! 59
 O1	2.3258365370	-4.5549219677	-2.2286742610
 H2	1.9854776678	-4.7732120029	-1.3758063024
 H3	2.4481335128	-5.3699656675	-2.6887021635
FRAGNAME=H2ODFT ! 60
 O1	1.4527378899	-1.4956124129	-5.0148611732
 H2	1.6060702547	-0.6854680009	-4.5554771598
 H3	0.8333497110	-1.3052803859	-5.7011631894
FRAGNAME=H2ODFT ! 61
 O1	5.9674609248	-4.3706617617	-4.5966966012
 H2	5.7727196664	-4.4054404826	-5.5195967785
 H3	5.8257905038	-5.2396559048	-4.2566126037
FRAGNAME=H2ODFT ! 62
 O1	0.2164159047	-9.1500323483	0.8773877645
 H2	0.7669148919	-8.9640077992	1.6211781829
 H3	0.5499670945	-8.6378415542	0.1581641215
FRAGNAME=H2ODFT ! 63
 O1	-4.8510120076	-1.5023876591	-6.3541764042
 H2	-3.9739860719	-1.1804628216	-6.2197577988
 H3	-5.2062043232	-1.0243565293	-7.0864353149
FRAGNAME=H2ODFT ! 64
 O1	-0.1630511650	-0.6615408049	-6.8597129932
 H2	-0.1711230385	-1.2115006337	-7.6267576371
 H3	0.0120397129	0.2168292512	-7.1575177667
FRAGNAME=H2ODFT ! 65
 O1	2.6405902822	1.4003012677	7.7764623417
 H2	2.3697636265	2.0734787421	8.3800876098
 H3	3.5844235303	1.3949004493	7.7817618395
FRAGNAME=H2ODFT ! 66
 O1	4.5714865973	-2.9262227553	-2.8319135463
 H2	3.8689148770	-3.4826291965	-2.5357998795
 H3	5.1094979193	-3.4498266100	-3.4039810898
FRAGNAME=H2ODFT ! 67
 O1	4.3433420423	1.6422958902	-6.5055515333
 H2	4.2375154878	2.2122774673	-5.7607024237
 H3	3.8627160480	2.0338901603	-7.2172614708
FRAGNAME=H2ODFT ! 68
 O1	2.6480951141	-8.0837215399	2.6087063107
 H2	3.3343806299	-8.1662077639	1.9659881239
 H3	2.5762985502	-7.1649255644	2.8125142171
FRAGNAME=H2ODFT ! 69
 O1	1.6367816269	3.3724677602	9.0550204084
 H2	1.7469036987	4.2351012535	8.6881211857
 H3	0.7105104435	3.1911943548	9.0486878467
FRAGNAME=H2ODFT ! 70
 O1	6.3038014207	-0.4583318635	2.3052955113
 H2	6.6207955367	-0.3510961848	1.4227459694
 H3	7.0512781289	-0.3693430621	2.8747145294
FRAGNAME=H2ODFT ! 71
 O1	-3.0583222648	-2.9000416592	-2.6121339990
 H2	-3.3445957545	-3.1143167884	-3.4856396441
 H3	-2.5064132561	-3.6101300019	-2.3256912548
FRAGNAME=H2ODFT ! 72
 O1	4.7593230082	-5.7285124762	-0.5107488630
 H2	5.5438157862	-5.5715576440	-0.0099348097
 H3	4.1271832191	-5.0847328932	-0.2335745682
FRAGNAME=H2ODFT ! 73
 O1	-2.0699627580	1.6135303329	-4.0739574361
 H2	-2.7826807490	2.1654937219	-3.7942291101
 H3	-1.3443848360	2.1850454955	-4.2683424971
FRAGNAME=H2ODFT ! 74
 O1	0.5609199353	-4.4499633412	-7.9252452742
 H2	-0.1376729249	-4.5077343129	-7.2931780430
 H3	1.2995445140	-4.9068900722	-7.5557454115
FRAGNAME=H2ODFT ! 75
 O1	-0.7595950559	2.2698834423	5.6726410312
 H2	-1.1330153360	2.9049782605	5.0826492343
 H3	0.1562120495	2.2024450949	5.4544029290
FRAGNAME=H2ODFT ! 76
 O1	-1.1072360434	6.6562053174	2.3305468752
 H2	-2.0027823066	6.3726916666	2.2383766289
 H3	-1.0158481037	7.4393516812	1.8116938407
FRAGNAME=H2ODFT ! 77
 O1	0.2235702894	-0.2483760575	3.8852183717
 H2	-0.5361995438	-0.0440823831	3.3637853949
 H3	0.4997516950	0.5583546148	4.2899255591
FRAGNAME=H2ODFT ! 78
 O1	-1.3801050734	-3.8881319171	8.9388022785
 H2	-1.1248199243	-4.5883044368	9.5179968826
 H3	-1.0918825530	-3.0844685979	9.3412094136
FRAGNAME=H2ODFT ! 79
 O1	0.9716235671	4.6326984341	3.6964739860
 H2	1.5392464497	3.9239645157	3.4388328593
 H3	0.0874770275	4.3079112120	3.6358389221
FRAGNAME=H2ODFT ! 80
 O1	-2.8537789471	3.5037241986	1.6286165289
 H2	-3.5554784706	2.9834146851	1.2711612974
 H3	-2.3387721878	3.8040136416	0.8968564986
FRAGNAME=H2ODFT ! 81
 O1	5.3985479791	-0.4393647842	5.4864923246
 H2	5.3452422102	0.0023396538	6.3189189811
 H3	5.1386165107	-1.3341540362	5.6370455719
FRAGNAME=H2ODFT ! 82
 O1	3.2877025286	-3.8480954266	0.6699485841
 H2	3.9328052115	-3.3097135331	1.0999089535
 H3	2.5701177655	-3.2798752362	0.4395654749
FRAGNAME=H2ODFT ! 83
 O1	-4.2467226981	0.5365512480	3.6764843848
 H2	-3.9790584223	0.6943672948	4.5677354071
 H3	-4.4862836118	-0.3748081774	3.6225119806
FRAGNAME=H2ODFT ! 84
 O1	-8.7943487352	-0.5484146673	-0.6783734143
 H2	-9.7211611302	-0.7020902168	-0.5873730627
 H3	-8.6819032802	-0.0177974961	-1.4508239896
FRAGNAME=H2ODFT ! 85
 O1	0.8946406358	6.0122921924	8.1034257311
 H2	-0.0350863955	5.9029005385	8.2239228984
 H3	1.0758187581	6.9322684158	8.2115769688
FRAGNAME=H2ODFT ! 86
 O1	-3.9174616176	3.0467284357	-1.1576315594
 H2	-3.0412192024	2.7174771436	-1.0365065391
 H3	-4.4986108313	2.3073452536	-1.0772788645
FRAGNAME=H2ODFT ! 87
 O1	-1.6037478285	-6.9198205042	3.3497476049
 H2	-1.5267716690	-7.7018653598	2.8269101838
 H3	-1.0109687632	-7.0204789262	4.0773184372
FRAGNAME=H2ODFT ! 88
 O1	3.9357582776	3.4028392687	-4.5226024859
 H2	3.1519235259	3.5447035082	-4.0162863060
 H3	4.6423522607	3.2993562603	-3.9054358435
FRAGNAME=H2ODFT ! 89
 O1	-2.4052268631	0.1295637978	5.9065922820
 H2	-2.1654249700	-0.6741428031	5.4736613337
 H3	-1.7787070992	0.7812632615	5.6352267559
FRAGNAME=H2ODFT ! 90
 O1	6.0627336965	2.5369584142	-3.0003908761
 H2	5.6906777814	2.3374925203	-2.1561952783
 H3	6.7475065761	3.1694766015	-2.8524540644
FRAGNAME=H2ODFT ! 91
 O1	-4.9255512175	2.1651616098	1.8091191920
 H2	-4.5841210478	1.7600773146	2.5902789751
 H3	-5.5452430770	1.5580047287	1.4373383765
FRAGNAME=H2ODFT ! 92
 O1	1.1440695019	-7.3960177283	-1.2136713526
 H2	0.9715044237	-6.4977247899	-0.9809278359
 H3	1.9124671231	-7.6581702539	-0.7322987286
FRAGNAME=H2ODFT ! 93
 O1	3.2021351546	6.5033782471	0.7060437748
 H2	3.6481501830	5.6766863745	0.6136879612
 H3	2.8415851007	6.5211567566	1.5781481477
FRAGNAME=H2ODFT ! 94
 O1	0.3832929586	0.8173137424	-2.3821088508
 H2	1.0868188605	0.9097206463	-3.0045160514
 H3	0.0158075509	-0.0420581393	-2.5136873367
FRAGNAME=H2ODFT ! 95
 O1	-4.9580502859	-2.0438560842	0.9648269296
 H2	-5.7108610387	-1.4915244523	0.8266813801
 H3	-5.0043308770	-2.7317481787	0.3202022115
FRAGNAME=H2ODFT ! 96
 O1	-1.4305128871	-6.6262479185	-4.1299235883
 H2	-1.1704111113	-5.9865081958	-4.7733197394
 H3	-0.8267410363	-7.3478097907	-4.2053322782
FRAGNAME=H2ODFT ! 97
 O1	-3.3439341167	-6.3390409254	0.2088876695
 H2	-3.2563018809	-7.2539497035	0.4236921694
 H3	-3.3396053756	-5.8668803992	1.0261539380
FRAGNAME=H2ODFT ! 98
 O1	3.6936841493	-5.1890717867	5.4545051688
 H2	4.4757422532	-5.7050843120	5.5684992485
 H3	3.2184010408	-5.2333063725	6.2687703114
FRAGNAME=H2ODFT ! 99
 O1	-2.6856426713	-0.8990875148	0.4925022696
 H2	-3.5630508362	-1.2316638194	0.5946118568
 H3	-2.5777900892	-0.6946910713	-0.4226307090
FRAGNAME=H2ODFT ! 100
 O1	4.7751912583	-3.4052886257	-7.0668394741
 H2	5.0137013665	-3.4611869485	-7.9783584042
 H3	4.4466559756	-2.5318152610	-6.9254630148
FRAGNAME=H2ODFT ! 101
 O1	5.2391118023	1.7071400237	7.6215134317
 H2	5.6646879757	1.9762609951	8.4198474955
 H3	5.2006343894	2.4682974426	7.0647034763
FRAGNAME=H2ODFT ! 102
 O1	-1.2332957445	2.5709489544	-1.1913124134
 H2	-0.8417924618	1.8759260145	-1.6958386730
 H3	-0.5455873001	2.9429114763	-0.6625597002
FRAGNAME=H2ODFT ! 103
 O1	4.8499624511	3.5665790859	3.7672835451
 H2	4.7611575375	2.6303516063	3.6868456926
 H3	5.5456635461	3.8242171120	3.1837588341
FRAGNAME=H2ODFT ! 104
 O1	-3.9430190031	-3.9478953374	-4.9942149327
 H2	-4.1173690654	-4.8736417988	-5.0531555718
 H3	-4.5628366006	-3.5184291478	-5.5618974070
FRAGNAME=H2ODFT ! 105
 O1	3.8108497088	7.2526948832	5.2432959142
 H2	4.6671483942	7.1654287788	4.8559773861
 H3	3.5366924067	6.3849532488	5.4937768188
FRAGNAME=H2ODFT ! 106
 O1	6.3659841615	0.6693236829	-4.7131958916
 H2	6.5239368855	1.4091527053	-4.1487648428
 H3	6.2639538630	1.0115683942	-5.5868873875
FRAGNAME=H2ODFT ! 107
 O1	-1.9239945348	-5.3310204474	-1.7292463522
 H2	-2.3621554554	-5.8528040190	-1.0760730474
 H3	-1.7193331057	-5.9097166882	-2.4462559857
FRAGNAME=H2ODFT ! 108
 O1	2.9031434697	-0.6762721236	-9.6132126238
 H2	3.2176304430	-0.7521540378	-8.7265230881
 H3	2.8214866757	0.2464992136	-9.7940542158
FRAGNAME=H2ODFT ! 109
 O1	7.9129652761	0.0179600399	4.4594535713
 H2	7.2131034599	-0.0369513302	5.0903708669
 H3	8.6535461597	-0.4298338739	4.8361484343
FRAGNAME=H2ODFT ! 110
 O1	1.7190540432	2.1110572280	-0.5866295576
 H2	1.4655075396	2.0501592906	0.3205000175
 H3	1.2348603492	1.4456687984	-1.0488991311
FRAGNAME=H2ODFT ! 111
 O1	0.4464607590	-5.0465266782	-0.3173874032
 H2	-0.3568206866	-4.9996206150	-0.8107606844
 H3	0.2079545665	-4.9978350406	0.5945459138
FRAGNAME=H2ODFT ! 112
 O1	-2.3360855806	-8.8523987981	1.6982188331
 H2	-1.6048724249	-9.2094465657	1.2199692470
 H3	-2.7946430965	-9.5842936843	2.0789199419
FRAGNAME=H2ODFT ! 113
 O1	0.0843378637	2.3145976970	1.7577879375
 H2	-0.3580162681	3.0603776659	1.3849427762
 H3	-0.5863842495	1.7041748796	2.0193109481
FRAGNAME=H2ODFT ! 114
 O1	2.7510878369	2.2816403654	2.3325125008
 H2	1.9105055622	1.9440871467	2.0672622081
 H3	3.2045224750	1.5737787969	2.7617064927
FRAGNAME=H2ODFT ! 115
 O1	4.3750805278	3.9881292291	0.8320455821
 H2	4.4794220635	3.4509784723	0.0629809798
 H3	3.8734709378	3.4816298199	1.4506929952
FRAGNAME=H2ODFT ! 116
 O1	-3.6425425719	5.8143160502	-0.7430682543
 H2	-3.8512225641	6.0545763933	0.1455295638
 H3	-3.8109240276	4.8888292237	-0.8205296857
FRAGNAME=H2ODFT ! 117
 O1	-3.7839236108	5.9557605629	2.1797627045
 H2	-4.3563244974	6.1673182245	2.8998175878
 H3	-3.6400834425	5.0234932352	2.2124137364
FRAGNAME=H2ODFT ! 118
 O1	-0.7557909103	8.0179534916	5.0467498735
 H2	-0.5657211430	7.9500764399	4.1247169870
 H3	0.0699402639	8.1479249815	5.4851034910
FRAGNAME=H2ODFT ! 119
 O1	-1.6072244949	5.1927472640	-2.4073113452
 H2	-1.5234588283	4.3230843941	-2.0501723529
 H3	-2.1679186659	5.6742559906	-1.8202424847
FRAGNAME=H2ODFT ! 120
 O1	-0.6790106554	4.5198328030	0.6251952412
 H2	0.0258693343	4.9002765543	0.1259105470
 H3	-0.8604302696	5.1147064048	1.3351887447
FRAGNAME=H2ODFT ! 121
 O1	2.0844995151	3.8422210291	-2.5336143125
 H2	1.9533797595	4.6921045170	-2.1445331891
 H3	2.2795486124	3.2475686673	-1.8270572575
FRAGNAME=H2ODFT ! 122
 O1	-5.0340795789	-3.8498631683	-0.9093032553
 H2	-4.3210255289	-3.5613752533	-1.4563015174
 H3	-4.7855218743	-4.6911016318	-0.5608561732
FRAGNAME=H2ODFT ! 123
 O1	-3.1259215903	8.3073225011	-1.5445893980
 H2	-3.4384133083	7.4242096877	-1.6600845890
 H3	-3.5442429265	8.8320898225	-2.2082948840
FRAGNAME=H2ODFT ! 124
 O1	-6.2674704805	-1.1989047227	-4.1591276513
 H2	-6.5950021848	-1.9870072254	-3.7560198719
 H3	-5.7949499596	-1.4654468398	-4.9314993954
FRAGNAME=H2ODFT ! 125
 O1	1.8183752632	-1.2395022773	7.6421900715
 H2	1.5765989704	-1.3971856739	6.7435474147
 H3	2.1106084936	-0.3433599852	7.6912531477
FRAGNAME=H2ODFT ! 126
 O1	-2.0477385802	-2.3106128748	4.8830924331
 H2	-1.7080631471	-2.3329794980	4.0027522781
 H3	-2.9791968559	-2.4485765340	4.8180542645
FRAGNAME=H2ODFT ! 127
 O1	-5.3672413272	0.1995707293	-1.9814038158
 H2	-5.8681766724	-0.2543806927	-2.6400921642
 H3	-4.5205416796	-0.2163486145	-1.9499513117
FRAGNAME=H2ODFT ! 128
 O1	-0.6788610748	-4.0131378362	6.2652296276
 H2	-1.2403294603	-3.3539986552	5.8895073287
 H3	-0.8842956130	-4.0519390123	7.1856477789
 $END