 $CONTRL SCFTYP=RHF RUNTYP=MD COORD=UNIQUE
DFTTYP=CAMB3LYP MAXIT=200 ICHARG=0 MULT=1 $END
 $MD KEVERY=10 PROD=.T. NVTNH=2 MBT=.T. MBR=.T. 
BATHT=298 RSTEMP=.T. DTEMP=25 NSTEPS=50000
SSBP=.T. SFORCE=1.0 DROFF=18.0 $END
 $DFT DC=.F. $END
 $SYSTEM MWORDS=1000 MEMDDI=1000 $END
 $SCF DIRSCF=.T. $END
 $BASIS GBASIS=N311 NGAUSS=6 NDFUNC=1 NPFUNC=1 
    DIFFSP=.TRUE. DIFFS=.TRUE. POLAR=POPN311 $END
 $DATA
MD INPUT
C1 1
N	7.0	13.6820242028	17.8097619848	9.4388138599
C	6.0	12.4816018306	17.4679878730	8.9111395375
C	6.0	11.3471639978	18.3280197749	9.0325250355
C	6.0	10.1488392874	18.0309132990	8.4275077924
C	6.0	10.0390021466	16.8619511133	7.6449969427
C	6.0	11.1325887857	15.9477016521	7.5543068860
C	6.0	12.3494293731	16.2678612847	8.1598305291
H	1.0	13.1988476590	15.6136221136	8.1410404637
H	1.0	11.0074129135	15.0614244918	6.9937564923
H	1.0	9.0650671065	16.6775230540	7.1010150636
H	1.0	9.3442648709	18.7152691019	8.6343943190
H	1.0	11.5922658102	19.1322340111	9.7480972793
H	1.0	13.6955970148	18.2581684969	10.3979150940
H	1.0	14.5451176885	17.4354957812	8.9994625445
 $END

 $EFRAG
COORD=CART  POSITION=OPTIMIZE
FRAGNAME=H2ODFT ! 1
 O1	14.1264537449	28.2950902331	3.1017748304
 H2	13.2087154210	28.0885213236	3.1790024717
 H3	14.2247177023	29.1963041002	3.3645222651
FRAGNAME=H2ODFT ! 2
 O1	8.2648085265	28.1205284911	2.9442267707
 H2	7.4083745830	27.9835224266	2.5718980273
 H3	8.2512783085	28.9728917720	3.3494084893
FRAGNAME=H2ODFT ! 3
 O1	4.3561806972	4.9906494750	0.3102593220
 H2	3.4588603179	4.7030309221	0.2557601564
 H3	4.8763302699	4.2239576876	0.4905551319
FRAGNAME=H2ODFT ! 4
 O1	17.1577529665	28.3969826132	11.0239054660
 H2	16.4943951111	28.2597422352	10.3666384817
 H3	17.9423256084	28.6559618259	10.5675569247
FRAGNAME=H2ODFT ! 5
 O1	4.3172211942	22.4331407217	14.9706464729
 H2	3.3926052549	22.6197725029	14.9369953626
 H3	4.6555849552	22.5808826296	14.1019919109
FRAGNAME=H2ODFT ! 6
 O1	7.2520283943	17.9247864432	7.0876705496
 H2	7.0056056447	17.8858228485	6.1773760257
 H3	7.1276921959	17.0579066009	7.4397192710
FRAGNAME=H2ODFT ! 7
 O1	-0.0856594470	14.0392147691	11.1641922358
 H2	0.4930899812	14.6463534220	11.5969857309
 H3	0.3422416488	13.1980737137	11.1803425064
FRAGNAME=H2ODFT ! 8
 O1	14.4843292813	13.8800332927	6.6810060173
 H2	14.7404585905	14.5445927015	6.0616216269
 H3	15.1122922942	13.9089167233	7.3850704006
FRAGNAME=H2ODFT ! 9
 O1	7.0976536269	21.7289839112	0.4441408717
 H2	7.5301727837	22.1317800119	1.1800491094
 H3	6.4793791268	21.1100072027	0.7983765713
FRAGNAME=H2ODFT ! 10
 O1	15.4163227049	8.4026051812	13.1813416767
 H2	15.0734291694	8.9072376367	12.4611690844
 H3	16.2595222568	8.0782064772	12.9081046898
FRAGNAME=H2ODFT ! 11
 O1	9.5831527109	11.7901780368	-0.9355079359
 H2	9.7989552511	11.9317672708	-1.8433957081
 H3	10.2223263521	11.1842938367	-0.5960379861
FRAGNAME=H2ODFT ! 12
 O1	18.4686016975	12.7484589967	11.0980338784
 H2	18.6715396314	13.3880304871	10.4342244495
 H3	19.1520103516	12.8044531961	11.7466444822
FRAGNAME=H2ODFT ! 13
 O1	6.3029363615	8.9436923316	9.7290922549
 H2	5.4275734882	8.5918495919	9.7003697903
 H3	6.8243410844	8.4223161296	9.1398703745
FRAGNAME=H2ODFT ! 14
 O1	7.6945779894	11.6063299374	2.6557911821
 H2	6.8124286557	11.9399091853	2.6181628318
 H3	8.2317121151	12.2032338512	2.1597356379
FRAGNAME=H2ODFT ! 15
 O1	23.7992737887	13.0431071944	8.5804543850
 H2	23.9741603482	12.2455908109	8.1068926011
 H3	23.9686566766	12.8606934471	9.4909010424
FRAGNAME=H2ODFT ! 16
 O1	-1.4690272051	8.7883500421	8.4169946944
 H2	-2.3215015162	8.9311383862	8.7961747203
 H3	-0.8845987912	8.5887809378	9.1307832177
FRAGNAME=H2ODFT ! 17
 O1	8.0766993524	22.5772102314	7.0759255595
 H2	8.5108657784	21.8488181737	6.6614102056
 H3	7.7507391865	22.2631144802	7.9041599968
FRAGNAME=H2ODFT ! 18
 O1	7.2076055813	26.8668362516	-0.6590258052
 H2	7.0093638447	26.0194561443	-1.0244373830
 H3	8.1457379662	26.9085107920	-0.5638979194
FRAGNAME=H2ODFT ! 19
 O1	12.1664025017	11.9761582139	4.5607934751
 H2	13.0001686812	11.5406072758	4.6383034197
 H3	11.7717816446	11.6663498226	3.7613113971
FRAGNAME=H2ODFT ! 20
 O1	16.1651067052	5.2897259460	3.1878222849
 H2	16.0264386527	6.2232770696	3.1993081518
 H3	15.4314881813	4.9121175021	2.7294619695
FRAGNAME=H2ODFT ! 21
 O1	-0.4529008295	17.6788233316	10.4977269669
 H2	-0.4706346596	16.9483108755	9.9003028991
 H3	-0.8701113841	18.4009371582	10.0557253510
FRAGNAME=H2ODFT ! 22
 O1	10.5935255421	12.3159223304	18.8446917418
 H2	9.6863500674	12.0567927343	18.8723135499
 H3	10.6561108480	13.1345727523	19.3102806376
FRAGNAME=H2ODFT ! 23
 O1	19.7700679836	15.8690729511	1.0488184236
 H2	19.5957401633	15.3584650753	0.2743716127
 H3	20.7018933205	15.8316650751	1.1943541474
FRAGNAME=H2ODFT ! 24
 O1	9.5677464993	21.0048118126	-0.4457788775
 H2	8.7492237875	21.3292783756	-0.1057487704
 H3	10.1756157672	20.9925317209	0.2761786050
FRAGNAME=H2ODFT ! 25
 O1	19.2358124718	17.7061541721	11.5449590490
 H2	19.6273826721	17.5887676609	10.6942113546
 H3	19.7929464766	18.3016647722	12.0201929704
FRAGNAME=H2ODFT ! 26
 O1	1.6699373219	26.3824175934	7.4794589994
 H2	1.0282357429	27.0733928173	7.4388292298
 H3	1.4412539579	25.8429879765	8.2194576900
FRAGNAME=H2ODFT ! 27
 O1	8.4794647213	3.4174870594	12.6884088809
 H2	8.3957546603	3.6526558822	13.5986652758
 H3	8.3327444036	4.2055046135	12.1900315770
FRAGNAME=H2ODFT ! 28
 O1	15.1052713721	4.1014826252	12.9175430838
 H2	15.8955568111	4.4222655307	12.5132836290
 H3	14.7276753186	4.8270688957	13.3885252903
FRAGNAME=H2ODFT ! 29
 O1	13.5148223881	8.9504391169	3.6986441101
 H2	13.3671739558	8.9021118212	4.6296343720
 H3	13.1692627773	8.1543809547	3.3274859057
FRAGNAME=H2ODFT ! 30
 O1	5.7879704019	3.1945840275	1.6851843602
 H2	6.6796060294	2.8989456774	1.7771752758
 H3	5.3900616558	3.1260670951	2.5383270883
FRAGNAME=H2ODFT ! 31
 O1	13.7902687766	6.3224797949	13.5717567835
 H2	14.3452654885	7.0734837355	13.4344608063
 H3	13.1876620982	6.2941558066	12.8458494910
FRAGNAME=H2ODFT ! 32
 O1	3.3760820929	19.3685267734	-1.0547328912
 H2	3.3594540620	18.9382418130	-1.8946476577
 H3	2.7945338980	20.1092677385	-1.1178436937
FRAGNAME=H2ODFT ! 33
 O1	12.1960686025	12.2871351137	0.7934165232
 H2	11.3191681357	12.4922755217	1.0759787962
 H3	12.2413608935	12.4981933945	-0.1254313774
FRAGNAME=H2ODFT ! 34
 O1	13.0545621980	21.4700933064	13.6053280265
 H2	13.1246809581	22.2322031431	14.1577322355
 H3	12.9879247766	20.7239986655	14.1795933787
FRAGNAME=H2ODFT ! 35
 O1	16.8610759589	19.0912360589	4.3491736402
 H2	16.1283630669	19.0607175778	3.7549692188
 H3	17.1227425739	19.9959965315	4.4109597559
FRAGNAME=H2ODFT ! 36
 O1	18.2236793285	14.1738688607	18.7575490621
 H2	17.6271772009	14.8925802851	18.8936282811
 H3	17.8113876913	13.4065840676	19.1210983790
FRAGNAME=H2ODFT ! 37
 O1	21.7739707016	8.2689005297	1.0042408752
 H2	21.7117372979	8.1428670086	0.0709022395
 H3	20.9731598291	7.9361827924	1.3769060168
FRAGNAME=H2ODFT ! 38
 O1	7.5982493852	4.1955012716	-1.8960487346
 H2	7.0302417233	4.7920332084	-2.3569124873
 H3	7.4160246552	3.3327230666	-2.2326291427
FRAGNAME=H2ODFT ! 39
 O1	9.1274127627	16.0836892647	-4.9761610066
 H2	8.7663705035	16.7772930459	-4.4475394639
 H3	9.1182767874	16.3901235451	-5.8688496529
FRAGNAME=H2ODFT ! 40
 O1	11.7460040010	6.4160035850	-0.7084347394
 H2	11.7069755306	5.6548943100	-0.1515973271
 H3	12.3740368028	7.0041157827	-0.3203918339
FRAGNAME=H2ODFT ! 41
 O1	19.0595439774	7.7352779644	-5.1803315578
 H2	18.2659780609	7.8865719418	-4.6922314428
 H3	18.8770804978	7.9731715005	-6.0753132323
FRAGNAME=H2ODFT ! 42
 O1	12.0201310903	16.5141234500	21.4291148775
 H2	12.3014972222	17.2442058359	20.9012027035
 H3	12.8021974435	16.0864676615	21.7395358812
FRAGNAME=H2ODFT ! 43
 O1	-1.2797457941	15.5535328439	8.8655905294
 H2	-0.5597433196	15.8984645264	8.3621056485
 H3	-0.9595777164	14.7805181575	9.3024190436
FRAGNAME=H2ODFT ! 44
 O1	1.7792188492	15.4898754415	9.2114806090
 H2	1.4105239911	16.3176290460	8.9473470715
 H3	1.9117481219	15.5373869867	10.1447850067
FRAGNAME=H2ODFT ! 45
 O1	17.9919566101	9.7250776895	2.9692022109
 H2	18.4719848564	9.8885350276	3.7652757223
 H3	17.7335263511	10.5673032569	2.6304569541
FRAGNAME=H2ODFT ! 46
 O1	16.5326720439	11.6580738242	19.0885359547
 H2	16.4898382085	11.0057860031	19.7693915303
 H3	16.7510991078	11.2035026438	18.2907057010
FRAGNAME=H2ODFT ! 47
 O1	12.1844192316	26.2056759008	3.3402424076
 H2	12.3736164074	25.4870569663	2.7582890506
 H3	11.3138976361	26.0614522885	3.6753097969
FRAGNAME=H2ODFT ! 48
 O1	23.7113942858	13.0874477372	11.3341561806
 H2	24.3416623620	13.0495505871	12.0357289935
 H3	23.2153368219	13.8808867353	11.4576875633
FRAGNAME=H2ODFT ! 49
 O1	22.3182381421	11.4065431824	-3.5631773875
 H2	21.6655987638	10.7571578457	-3.7711172351
 H3	22.8383233198	11.0528041761	-2.8594312847
FRAGNAME=H2ODFT ! 50
 O1	22.1539572832	16.4047490768	6.1719984283
 H2	22.4774649348	16.0248159890	6.9731676378
 H3	21.2126735744	16.3421909493	6.2028191071
FRAGNAME=H2ODFT ! 51
 O1	5.5969706307	6.9809390629	5.2733700253
 H2	4.8854308133	6.6528057253	5.7996000655
 H3	5.4531559927	6.6653354452	4.3955373757
FRAGNAME=H2ODFT ! 52
 O1	10.0438181385	28.1057345224	12.9663453925
 H2	10.1285991480	27.1888268640	13.1736398222
 H3	10.7535841436	28.5492656669	13.4026833305
FRAGNAME=H2ODFT ! 53
 O1	16.5972101273	14.0534334282	-0.1495261616
 H2	16.8151634846	13.6514301009	0.6761663434
 H3	16.8465740593	14.9613571754	-0.0834160055
FRAGNAME=H2ODFT ! 54
 O1	8.5298582285	2.7120050847	0.9602821265
 H2	8.5673437380	2.0792330791	0.2609446685
 H3	8.8627583164	3.5229855793	0.6104727163
FRAGNAME=H2ODFT ! 55
 O1	17.6194529622	11.2148616491	16.9764752311
 H2	17.8202681972	10.4768283824	16.4234303931
 H3	17.8379871310	11.9900494397	16.4843317962
FRAGNAME=H2ODFT ! 56
 O1	10.0176370741	19.4367856799	19.2203020704
 H2	10.1264675064	18.5765898130	18.8473443496
 H3	10.3912495475	19.4061478190	20.0865315407
FRAGNAME=H2ODFT ! 57
 O1	4.1723434198	17.3871478062	5.8924651607
 H2	4.2985405666	17.1582245745	6.7994088680
 H3	4.0558411026	18.3233191967	5.8626525490
FRAGNAME=H2ODFT ! 58
 O1	15.9614255392	12.0504837644	12.1101773596
 H2	16.7658959342	12.4893733041	11.8841645068
 H3	15.7759845210	12.2699691697	13.0092414507
FRAGNAME=H2ODFT ! 59
 O1	14.5630058707	13.3884273213	10.3779682013
 H2	13.8319538223	13.9568780486	10.5604651259
 H3	14.7060307823	12.8723921844	11.1552262450
FRAGNAME=H2ODFT ! 60
 O1	21.7584082818	13.7155319906	-2.3338192326
 H2	21.9107306575	12.9097971009	-2.8012244481
 H3	21.9232124881	14.4176747271	-2.9426817829
FRAGNAME=H2ODFT ! 61
 O1	15.0646715930	16.7919012557	12.2027145686
 H2	15.6564999157	17.3052425048	11.6763131508
 H3	15.5147702294	16.6024513078	13.0104263916
FRAGNAME=H2ODFT ! 62
 O1	13.8566577051	16.8817662281	0.2593149855
 H2	13.0041426675	17.2145163583	0.0282870316
 H3	13.9241066935	16.0207333237	-0.1214098830
FRAGNAME=H2ODFT ! 63
 O1	4.7373158086	12.1220037184	-1.8090823145
 H2	4.5813506643	11.4129160133	-2.4121975229
 H3	5.4965501835	11.8841816204	-1.3012612161
FRAGNAME=H2ODFT ! 64
 O1	-1.2566407198	16.2526712581	1.2634776905
 H2	-1.8107440746	16.5552580313	1.9651109070
 H3	-0.3714579811	16.2686704948	1.5906993239
FRAGNAME=H2ODFT ! 65
 O1	17.0397102683	22.6943141319	13.7684901261
 H2	16.6550085500	23.5204008050	13.5225961443
 H3	17.2101149678	22.7397166517	14.6957329764
FRAGNAME=H2ODFT ! 66
 O1	20.4804862906	10.4441104084	8.7274618817
 H2	21.1206902827	10.6737163912	9.3819069867
 H3	19.6929553411	10.2061221727	9.1901011121
FRAGNAME=H2ODFT ! 67
 O1	13.2545114934	8.4827854786	-0.4885957002
 H2	14.0984653845	8.3233094031	-0.0972037416
 H3	13.4108354377	8.9717603553	-1.2806467394
FRAGNAME=H2ODFT ! 68
 O1	0.0225445887	13.2434673021	2.0076526376
 H2	0.1581752770	14.0224948721	2.5230154372
 H3	0.0209947287	13.5133872619	1.1032084620
FRAGNAME=H2ODFT ! 69
 O1	15.0298706773	18.5858596037	-2.4696929849
 H2	14.6067460066	19.3388030766	-2.8503767033
 H3	15.9571320854	18.6982194831	-2.6054869185
FRAGNAME=H2ODFT ! 70
 O1	0.9585551845	21.5994541653	9.3973272748
 H2	1.2769997913	21.8314089189	8.5396160889
 H3	1.5795095228	20.9888487047	9.7612711369
FRAGNAME=H2ODFT ! 71
 O1	9.4770200833	11.6266218511	8.7105095607
 H2	9.7015783347	11.6486040452	7.7940114268
 H3	10.0862163616	12.1959452660	9.1528094572
FRAGNAME=H2ODFT ! 72
 O1	16.2789345258	10.3882896229	8.3314342413
 H2	16.1384658328	9.9503042127	7.5072280898
 H3	15.4480831577	10.7546421485	8.5890197310
FRAGNAME=H2ODFT ! 73
 O1	1.9246199170	18.6913187092	9.0514535594
 H2	2.5028612057	19.1923648756	8.4987617780
 H3	1.3066550137	18.2635935322	8.4804465495
FRAGNAME=H2ODFT ! 74
 O1	4.6513957812	19.5810874324	14.7767507569
 H2	4.3619693165	20.4459337478	14.5335396828
 H3	5.3954677809	19.6942103637	15.3463458025
FRAGNAME=H2ODFT ! 75
 O1	15.1314257755	9.7803766378	11.0077800058
 H2	14.4629585465	10.0327535754	10.3910662163
 H3	15.4334399598	10.5737854331	11.4202946956
FRAGNAME=H2ODFT ! 76
 O1	19.2730939029	14.2550155935	-1.2348690281
 H2	20.1156992323	13.9578932153	-1.5391928774
 H3	18.8841630104	13.5338797263	-0.7662814952
FRAGNAME=H2ODFT ! 77
 O1	15.6115703974	12.6575599736	14.6842118345
 H2	15.6201688839	11.9286724021	15.2838178952
 H3	16.2688817538	13.2643131422	14.9853278038
FRAGNAME=H2ODFT ! 78
 O1	10.0631419356	4.9838574271	-2.4934085175
 H2	10.1526486179	5.7292863886	-1.9213921974
 H3	9.2389895918	4.5759957296	-2.2805700741
FRAGNAME=H2ODFT ! 79
 O1	11.1075861246	15.1598519869	15.1443158919
 H2	11.9362896242	14.8891695192	14.7825701723
 H3	10.9376220457	14.5978324775	15.8833184205
FRAGNAME=H2ODFT ! 80
 O1	11.9913626770	14.7707988259	4.5838513129
 H2	11.8959423564	13.8318366904	4.5949654539
 H3	12.8244084231	14.9635698855	4.9835418897
FRAGNAME=H2ODFT ! 81
 O1	-3.8112483965	17.6158258031	6.0913015800
 H2	-3.8992606983	16.8497750560	6.6356346966
 H3	-4.6752742166	17.9846860173	6.0003071910
FRAGNAME=H2ODFT ! 82
 O1	22.4195418604	21.4712370113	5.0898166673
 H2	22.6883924964	20.6084586399	5.3622341252
 H3	22.6572245738	22.0620435261	5.7864751517
FRAGNAME=H2ODFT ! 83
 O1	0.2495166169	18.6813147779	3.7030634320
 H2	0.3343844162	18.9047966943	2.7899743105
 H3	-0.5731515579	18.2280576012	3.7960874082
FRAGNAME=H2ODFT ! 84
 O1	7.4560313422	19.8603340324	13.2663186320
 H2	7.9520416121	19.9091665570	12.4647778341
 H3	6.7366759402	20.4649069409	13.1774487390
FRAGNAME=H2ODFT ! 85
 O1	-0.1866717586	11.2090669847	-2.6626538312
 H2	-1.1025804475	11.0713135140	-2.8443505814
 H3	-0.1174178609	12.0503314746	-2.2403311942
FRAGNAME=H2ODFT ! 86
 O1	2.1194162586	15.8536674149	11.8407222056
 H2	2.4103218871	16.7454296761	11.9456623720
 H3	2.7483364956	15.3089317972	12.2863688100
FRAGNAME=H2ODFT ! 87
 O1	13.7257575697	9.3586803604	-2.8874771359
 H2	14.3379683456	8.7384606010	-3.2499738530
 H3	14.1887541132	10.1763166702	-2.7981265932
FRAGNAME=H2ODFT ! 88
 O1	20.8036808096	19.6839587916	15.5048448023
 H2	19.9765485883	20.0156151590	15.8158669819
 H3	21.4756618270	20.1182112686	16.0055890005
FRAGNAME=H2ODFT ! 89
 O1	19.0524060683	14.6184895962	9.2157803475
 H2	19.4397900286	15.4751461770	9.2991567475
 H3	19.5395752327	14.1643885173	8.5469478799
FRAGNAME=H2ODFT ! 90
 O1	10.9552241830	23.1818363727	17.0043359035
 H2	10.0510642391	23.3691239676	16.8086407147
 H3	11.4506326015	23.3977612770	16.2304978139
FRAGNAME=H2ODFT ! 91
 O1	5.1809538319	27.6125704396	4.9258847950
 H2	4.6642141686	28.1718855895	4.3681885180
 H3	5.8806268648	28.1444081342	5.2701009589
FRAGNAME=H2ODFT ! 92
 O1	19.8050662780	21.7102379781	5.5678062351
 H2	19.8084989585	22.5264395407	6.0418122262
 H3	20.6971566312	21.5433067105	5.3086012827
FRAGNAME=H2ODFT ! 93
 O1	11.3544455333	22.9489579639	5.6526419813
 H2	10.4992333597	23.1086646655	5.2866032376
 H3	11.2888427123	22.1551907987	6.1591085760
FRAGNAME=H2ODFT ! 94
 O1	5.9285188246	17.1067159949	-1.5967643609
 H2	6.4374821600	16.3235901923	-1.7329581728
 H3	6.1769944624	17.4483772893	-0.7527229691
FRAGNAME=H2ODFT ! 95
 O1	13.0020746143	23.6231123187	15.3067343564
 H2	12.9571987197	24.5373100906	15.0762847035
 H3	13.8593400463	23.4776676195	15.6739131591
FRAGNAME=H2ODFT ! 96
 O1	5.5429491676	13.6898978587	12.0879039930
 H2	6.0745201804	14.0700507809	11.4068794209
 H3	6.0879456004	13.0669460810	12.5415430838
FRAGNAME=H2ODFT ! 97
 O1	5.1580438538	7.1420292133	-1.0479410704
 H2	4.8968822771	6.3192094855	-0.6663119563
 H3	4.4940971461	7.7715230561	-0.8160127941
FRAGNAME=H2ODFT ! 98
 O1	12.7181002566	12.5016076066	-1.6374790876
 H2	13.4535069805	11.9515440673	-1.8553907835
 H3	12.1082284426	12.4359273115	-2.3548499285
FRAGNAME=H2ODFT ! 99
 O1	11.1222367042	4.2868769397	0.6288009731
 H2	11.3404560196	4.2731046367	1.5469889211
 H3	11.5812781552	3.5649873863	0.2300092069
FRAGNAME=H2ODFT ! 100
 O1	10.8111878821	30.7153601842	6.0310502699
 H2	10.9440072095	30.0996475954	6.7339979835
 H3	11.6360293558	31.1534378175	5.8946575128
FRAGNAME=H2ODFT ! 101
 O1	7.2240376754	23.9653886638	-1.2666664241
 H2	6.8787804482	23.5321066510	-2.0308277934
 H3	7.0296834473	23.4098421331	-0.5287823274
FRAGNAME=H2ODFT ! 102
 O1	10.2799319842	26.8742945565	6.6965476728
 H2	9.7679757217	26.4551828579	7.3696929940
 H3	10.7142011658	27.6072633382	7.1028055922
FRAGNAME=H2ODFT ! 103
 O1	0.3843767659	24.3414028277	2.9554571463
 H2	0.6528339915	24.4714914178	3.8509380960
 H3	-0.5465478118	24.4944128091	2.9263739768
FRAGNAME=H2ODFT ! 104
 O1	10.1729805372	11.0601988130	-5.1227632386
 H2	10.3402548038	10.8751520440	-6.0330683891
 H3	10.5145539335	10.3309178152	-4.6304672957
FRAGNAME=H2ODFT ! 105
 O1	1.3015329968	9.1101878507	13.0888602987
 H2	2.2128339855	8.8859156180	13.1894134061
 H3	0.9736423087	9.3064930373	13.9518958856
FRAGNAME=H2ODFT ! 106
 O1	2.4131242336	8.2003097651	6.5332133732
 H2	1.5021377308	8.2091597119	6.2864265729
 H3	2.7102119561	7.3090628867	6.4421291181
FRAGNAME=H2ODFT ! 107
 O1	12.0766415013	16.7914480157	2.6649784824
 H2	12.9046735455	17.1184021973	2.3513826419
 H3	12.2725024651	16.1364720746	3.3157652781
FRAGNAME=H2ODFT ! 108
 O1	-0.8321704229	15.1422373089	4.6563932666
 H2	-0.0006519598	15.4619402349	4.9682354364
 H3	-1.0598846755	14.4042932335	5.1990379156
FRAGNAME=H2ODFT ! 109
 O1	18.2622111416	24.9722315800	2.4749330286
 H2	18.3897721386	24.0940179964	2.1534558942
 H3	18.9195391074	25.5100151334	2.0631233037
FRAGNAME=H2ODFT ! 110
 O1	24.1772912220	11.8102090088	0.8308023460
 H2	24.9772226200	11.9374837590	1.3153530153
 H3	23.5864123943	11.3439431457	1.4003081057
FRAGNAME=H2ODFT ! 111
 O1	1.9545087873	3.9936156822	5.3796842461
 H2	1.1917298894	4.4568345155	5.0723161938
 H3	1.6456980448	3.3210238312	5.9654611502
FRAGNAME=H2ODFT ! 112
 O1	2.8362443470	15.2363163648	0.7301522736
 H2	2.4558275776	15.6544402075	-0.0257141084
 H3	2.9749302040	14.3318244039	0.4987673574
FRAGNAME=H2ODFT ! 113
 O1	10.0452911548	9.1423558059	9.5523712827
 H2	10.2154655651	9.0973791716	10.4796771793
 H3	9.9122488200	10.0534618748	9.3448527973
FRAGNAME=H2ODFT ! 114
 O1	21.7008425518	6.7438652777	7.2804240504
 H2	21.0954532398	6.4140046074	6.6357736230
 H3	21.4898509295	6.3158488044	8.0947721874
FRAGNAME=H2ODFT ! 115
 O1	15.6220176908	13.1993903529	3.7454884563
 H2	15.3944973465	12.4126419273	4.2146791011
 H3	14.8336242512	13.5009837558	3.3231667101
FRAGNAME=H2ODFT ! 116
 O1	13.5904587356	14.1351611796	2.1872282348
 H2	13.2177638626	13.5517682817	1.5456444811
 H3	12.8673073747	14.5610985879	2.6190938252
FRAGNAME=H2ODFT ! 117
 O1	7.0827402570	9.0266800209	5.9896747830
 H2	6.4432178970	8.4511520992	5.6015289129
 H3	6.6127729906	9.7834911037	6.3015180248
FRAGNAME=H2ODFT ! 118
 O1	13.3877516634	5.5813435608	-2.6676066487
 H2	12.7332842481	6.1027626313	-2.2309454420
 H3	12.9419566458	5.0975075568	-3.3443990671
FRAGNAME=H2ODFT ! 119
 O1	9.7651109919	6.8874648090	15.8447902889
 H2	10.6749987552	6.6496781744	15.7645392540
 H3	9.7085165616	7.5086471866	16.5531743500
FRAGNAME=H2ODFT ! 120
 O1	13.4664115103	14.3051791872	14.0109325029
 H2	14.1469118607	13.7077734924	14.2772108595
 H3	13.4376411320	14.2806481681	13.0678264915
FRAGNAME=H2ODFT ! 121
 O1	8.6783434012	19.0424503432	11.1415267260
 H2	9.1899102356	19.4197060968	10.4437761086
 H3	9.1882939854	18.3331248685	11.4988588214
FRAGNAME=H2ODFT ! 122
 O1	11.1288648522	24.4560741064	0.7612129073
 H2	11.9959541710	24.2538937611	1.0745141599
 H3	11.1765666650	24.4664403157	-0.1813875024
FRAGNAME=H2ODFT ! 123
 O1	15.4138888371	24.7270408292	12.6794595653
 H2	15.1978678163	24.3551625147	11.8392691753
 H3	14.6900919701	25.2807489232	12.9252316051
FRAGNAME=H2ODFT ! 124
 O1	3.0718094300	25.9758892754	1.9641970271
 H2	2.1429117802	25.8133737550	1.9239935943
 H3	3.4051308894	25.4676250918	2.6863069762
FRAGNAME=H2ODFT ! 125
 O1	22.6539931179	19.3473487930	10.6373088558
 H2	22.1121248998	19.4948623071	11.3959240755
 H3	22.2860242250	19.8620017540	9.9368735071
FRAGNAME=H2ODFT ! 126
 O1	18.4687134577	17.5470526853	7.3380372173
 H2	17.7089507924	17.1368372956	7.7193015360
 H3	18.6659040949	17.0710209240	6.5472224038
FRAGNAME=H2ODFT ! 127
 O1	24.8614864980	16.5819203731	5.6725899665
 H2	24.0535068481	16.9628113683	5.3676811454
 H3	25.0734244762	15.8817812238	5.0761288035
FRAGNAME=H2ODFT ! 128
 O1	4.7024393621	24.2702749608	0.3195854054
 H2	4.0698423662	24.8395856889	0.7277334048
 H3	5.5499633124	24.6609172862	0.4609366741
FRAGNAME=H2ODFT ! 129
 O1	7.4642726759	9.1056600754	1.7935007446
 H2	7.6815577974	9.8648601857	2.3104928362
 H3	7.4527913685	8.3694979349	2.3841037726
FRAGNAME=H2ODFT ! 130
 O1	5.5032967525	4.7282919309	13.8167598410
 H2	5.3773107192	4.4741097967	12.9165390815
 H3	6.2605661596	4.2585597489	14.1278437139
FRAGNAME=H2ODFT ! 131
 O1	13.0532772308	22.4115104097	3.7870173996
 H2	12.3814192743	22.5889753994	4.4257595365
 H3	12.8358674817	21.5846098233	3.3872088516
FRAGNAME=H2ODFT ! 132
 O1	18.3158826204	10.8089920836	-2.5965556652
 H2	18.6427578105	10.9054952060	-1.7163748819
 H3	17.8224566674	11.5900458962	-2.7898539436
FRAGNAME=H2ODFT ! 133
 O1	14.2266323359	10.8135976298	1.7831782646
 H2	13.4885134284	11.2654327996	1.4064769082
 H3	13.8944747276	10.3087844146	2.5082392243
FRAGNAME=H2ODFT ! 134
 O1	4.3459729657	18.1406829030	12.4451251954
 H2	4.5187993027	18.6215329699	13.2387200066
 H3	3.5899269114	18.5398892783	12.0452413525
FRAGNAME=H2ODFT ! 135
 O1	11.7373972544	18.4195919214	-0.4802265248
 H2	11.6277089439	19.1095476864	0.1544450211
 H3	10.8849527941	18.0377301248	-0.6158674652
FRAGNAME=H2ODFT ! 136
 O1	14.7593466308	4.1605467383	-0.9216605750
 H2	14.2219752340	4.7202063553	-1.4591468994
 H3	15.6548239129	4.4178449656	-1.0726457186
FRAGNAME=H2ODFT ! 137
 O1	18.6192848666	18.2128676001	0.7604573652
 H2	19.3527246384	17.6250461200	0.6743733190
 H3	17.8426824608	17.7045990767	0.5889048491
FRAGNAME=H2ODFT ! 138
 O1	16.4774905441	16.2756948170	14.2210402684
 H2	16.3155426277	15.7405744232	14.9814990052
 H3	17.3443481862	16.0593390959	13.9166942742
FRAGNAME=H2ODFT ! 139
 O1	15.1102723790	19.9692524863	0.2786228671
 H2	14.8517223201	19.3038586738	-0.3388570078
 H3	14.6469134013	20.7560159687	0.0394991851
FRAGNAME=H2ODFT ! 140
 O1	7.6073726144	8.3254099923	-6.6090769395
 H2	7.0373160471	9.0072638644	-6.2912888632
 H3	7.6808007502	7.6884529116	-5.9164208628
FRAGNAME=H2ODFT ! 141
 O1	21.0955270086	21.4364332426	2.4667950630
 H2	20.9713230625	20.5907793496	2.8671965206
 H3	21.6565935385	21.9298759753	3.0435073594
FRAGNAME=H2ODFT ! 142
 O1	24.2475715987	12.0798703421	6.2514797629
 H2	23.6584111097	11.5773744703	5.7117888597
 H3	25.1168115436	11.9320101608	5.9146745684
FRAGNAME=H2ODFT ! 143
 O1	19.0857808715	12.4918262133	3.2995539986
 H2	19.2212951327	12.5958932236	4.2278235694
 H3	19.8592832764	12.0725707595	2.9577977289
FRAGNAME=H2ODFT ! 144
 O1	4.0846510507	14.7218052818	7.9886470550
 H2	3.4604341070	15.3894691478	8.2241393551
 H3	3.6341297204	14.1174475712	7.4206147119
FRAGNAME=H2ODFT ! 145
 O1	10.0086033905	7.7742407630	2.1736430373
 H2	10.8236874629	7.3115862228	2.0619864861
 H3	10.0206038138	8.4956767931	1.5651494067
FRAGNAME=H2ODFT ! 146
 O1	22.4279019919	16.0296422938	1.4200158444
 H2	22.7097261496	16.9213206363	1.2920966051
 H3	22.9015160606	15.5032625318	0.7959224907
FRAGNAME=H2ODFT ! 147
 O1	19.0894631305	20.0424491085	7.4165378180
 H2	18.8425304390	19.1665802483	7.1660254639
 H3	19.1743478274	20.5391305116	6.6184271578
FRAGNAME=H2ODFT ! 148
 O1	24.4357679223	14.1305203850	4.5512783379
 H2	23.6116329188	14.3907868326	4.1718823363
 H3	24.2321616799	13.5869897619	5.2955883631
FRAGNAME=H2ODFT ! 149
 O1	9.3038600113	23.8658444398	4.3764976573
 H2	9.4160491777	24.8029112233	4.3624303776
 H3	8.4053054400	23.7037649975	4.6156804139
FRAGNAME=H2ODFT ! 150
 O1	-1.9837748148	12.9934507765	5.7342401571
 H2	-1.8381172528	12.4759523577	6.5100350495
 H3	-2.0896438104	12.3865031795	5.0191983232
FRAGNAME=H2ODFT ! 151
 O1	12.5231648812	23.5450142757	-1.8752621074
 H2	13.0889593273	24.0827529700	-2.4059147196
 H3	12.0307671177	23.0010358519	-2.4689879449
FRAGNAME=H2ODFT ! 152
 O1	5.7479701051	25.5193968949	3.7062797642
 H2	6.3435081418	25.5464643988	2.9745146035
 H3	5.8282456601	26.3474274230	4.1521494010
FRAGNAME=H2ODFT ! 153
 O1	1.6344521539	21.7407169729	14.6404294668
 H2	1.5288133269	22.2212773581	15.4458986522
 H3	1.1586414916	20.9319918939	14.7426371689
FRAGNAME=H2ODFT ! 154
 O1	9.0668707106	3.0970364913	3.6105369429
 H2	8.7714205212	3.0655534184	2.7146594651
 H3	8.3019161845	3.2444706955	4.1434404818
FRAGNAME=H2ODFT ! 155
 O1	22.3695875724	22.9223408434	7.4314681928
 H2	21.7082527457	23.5745122343	7.2635778187
 H3	23.0389007252	23.3415126869	7.9483756537
FRAGNAME=H2ODFT ! 156
 O1	7.1365423622	0.8801057412	8.3682176477
 H2	6.3799303051	0.3161420065	8.3492030436
 H3	7.8837791989	0.3382914971	8.1708527855
FRAGNAME=H2ODFT ! 157
 O1	16.8104938187	13.0778279799	-2.7913007882
 H2	16.7922414826	13.8676874440	-3.3076992132
 H3	16.8287431103	13.3456717460	-1.8864222690
FRAGNAME=H2ODFT ! 158
 O1	5.1231481511	12.5282299856	9.0002456772
 H2	5.8299199865	12.3347323710	9.5951496190
 H3	5.0699018878	13.4685953654	8.9389574909
FRAGNAME=H2ODFT ! 159
 O1	12.6299336672	19.7862063368	3.4313773375
 H2	13.4595338625	19.4050103160	3.1919372319
 H3	12.3041683706	19.2885941044	4.1642739825
FRAGNAME=H2ODFT ! 160
 O1	19.9214237351	14.5662658422	16.6356380102
 H2	19.1879124241	14.5469307493	17.2293262830
 H3	20.1145872009	15.4756567379	16.4726210520
FRAGNAME=H2ODFT ! 161
 O1	0.2880318012	17.2845087141	7.6425608483
 H2	-0.4755604180	17.8279230206	7.5307294200
 H3	0.6787608669	17.1866934965	6.7889558843
FRAGNAME=H2ODFT ! 162
 O1	8.7323441034	15.2555339468	13.9580084815
 H2	8.3601613444	16.0925125040	14.1856602820
 H3	9.6559944011	15.3095729897	14.1446320680
FRAGNAME=H2ODFT ! 163
 O1	10.7958712350	6.4850909440	5.4421305146
 H2	11.1563817437	5.8863832641	4.8077333671
 H3	11.2612662041	7.3000068832	5.3411454238
FRAGNAME=H2ODFT ! 164
 O1	12.3292279449	13.0678061005	7.8238756824
 H2	13.1389854071	13.4445492540	7.5185301356
 H3	11.8026570963	12.8998415412	7.0587681720
FRAGNAME=H2ODFT ! 165
 O1	5.5868910342	10.5663163945	14.0781025480
 H2	6.0585023384	11.0299549077	13.4046780454
 H3	5.0799223181	9.8990113759	13.6438616162
FRAGNAME=H2ODFT ! 166
 O1	22.6675233860	13.7441598359	0.1343938796
 H2	22.6437980699	13.7801603249	-0.8084844413
 H3	23.4530929716	13.2761462768	0.3683216219
FRAGNAME=H2ODFT ! 167
 O1	17.4143023104	8.3722781811	-3.2654749886
 H2	17.1662938420	9.2825926712	-3.2390594060
 H3	16.6186119007	7.8775248938	-3.3793802598
FRAGNAME=H2ODFT ! 168
 O1	8.7619266476	5.4772050851	0.8844784559
 H2	8.2400224248	5.9241752039	0.2373987473
 H3	9.6572593415	5.5221934670	0.5891246563
FRAGNAME=H2ODFT ! 169
 O1	14.9863152695	7.3068255358	-3.9833319365
 H2	14.5491322312	6.6435132742	-3.4736592093
 H3	14.9215878002	7.0413278935	-4.8867697102
FRAGNAME=H2ODFT ! 170
 O1	3.5388244660	16.3647238509	-2.5023855493
 H2	3.6494504874	15.5046920877	-2.8751934140
 H3	4.3369387572	16.5646093078	-2.0398514029
FRAGNAME=H2ODFT ! 171
 O1	11.8699415354	22.1421378710	9.1829280246
 H2	12.5078688475	21.8102895520	9.7943230619
 H3	12.0402410361	23.0656113605	9.0876744248
FRAGNAME=H2ODFT ! 172
 O1	14.5732708823	15.9368389678	5.1404409634
 H2	14.8239337070	15.9619795126	4.2308176592
 H3	14.4947725817	16.8333307272	5.4250793242
FRAGNAME=H2ODFT ! 173
 O1	26.0094003774	13.1166548386	2.6295887583
 H2	26.0789176668	13.9160123475	2.1325240008
 H3	25.4479845961	13.3025815312	3.3651987359
FRAGNAME=H2ODFT ! 174
 O1	11.3120174439	0.8058281066	1.3277166304
 H2	11.6267877412	0.9763346894	0.4543749909
 H3	10.3692645765	0.8127382678	1.2824647269
FRAGNAME=H2ODFT ! 175
 O1	8.9579087907	23.4492702236	13.8457605110
 H2	9.4638085904	22.6648406159	13.7057103866
 H3	8.5394264804	23.3556784341	14.6865884287
FRAGNAME=H2ODFT ! 176
 O1	19.5654134005	24.4766890800	11.6109524760
 H2	18.9553280151	25.0641960324	12.0274976202
 H3	19.4655902670	23.6381993452	12.0326736643
FRAGNAME=H2ODFT ! 177
 O1	1.1418688993	19.1453820984	1.1924003103
 H2	0.7957512615	18.5541079262	0.5431885665
 H3	1.2824875938	19.9719841839	0.7590023072
FRAGNAME=H2ODFT ! 178
 O1	2.0002092872	9.0878902641	8.9538620899
 H2	2.3583804707	8.6958616450	8.1735381703
 H3	2.1511676596	10.0170184065	8.8845013005
FRAGNAME=H2ODFT ! 179
 O1	16.0771119479	24.8263054819	6.2884198120
 H2	15.4777668576	25.4740550947	5.9536297945
 H3	15.7192266799	23.9828036538	6.0619220086
FRAGNAME=H2ODFT ! 180
 O1	4.3210561363	26.2079177388	6.9478137857
 H2	3.4420498200	26.5490014291	6.9912679699
 H3	4.7165528473	26.5751042477	6.1734528405
FRAGNAME=H2ODFT ! 181
 O1	1.0058032053	11.2568797172	5.5404340957
 H2	0.6071825406	10.6616595763	4.9258667652
 H3	0.4130882378	11.3292659313	6.2714112892
FRAGNAME=H2ODFT ! 182
 O1	15.0282842464	18.5714049732	2.4149560093
 H2	15.2977386542	17.7020911076	2.1648236865
 H3	15.0829783900	19.1061424267	1.6391062428
FRAGNAME=H2ODFT ! 183
 O1	12.7028883970	11.3978138963	14.5412198345
 H2	12.7084632537	11.6120932343	13.6220181480
 H3	12.5992188779	12.2111664458	15.0087545553
FRAGNAME=H2ODFT ! 184
 O1	5.9502140577	20.0513193112	8.2054048419
 H2	6.4031582218	19.2728160965	7.9231765950
 H3	6.5276252714	20.4997461113	8.8023873790
FRAGNAME=H2ODFT ! 185
 O1	9.7162984532	26.3998197051	4.2563897471
 H2	9.1953137853	27.0444211753	3.8047899524
 H3	9.7520045062	26.6654850007	5.1613900138
FRAGNAME=H2ODFT ! 186