 $CONTRL SCFTYP=RHF RUNTYP=MD COORD=UNIQUE
DFTTYP=CAMB3LYP MAXIT=200 ICHARG=0 MULT=1 $END
 $MD KEVERY=10 PROD=.T. NVTNH=2 MBT=.T. MBR=.T. 
BATHT=298 RSTEMP=.T. DTEMP=25 NSTEPS=50000
SSBP=.T. SFORCE=1.0 DROFF=7.91 $END
 $DFT DC=.F. $END
 $SYSTEM MWORDS=1000 MEMDDI=1000 $END
 $SCF DIRSCF=.T. $END
 $BASIS GBASIS=N311 NGAUSS=6 NDFUNC=1 NPFUNC=1 
    DIFFSP=.TRUE. DIFFS=.TRUE. POLAR=POPN311 $END
 $DATA
MD INPUT
C1 1
N	7.0	-0.4205948251	-0.8395076130	1.0070956562
C	6.0	-0.6220118270	-0.0375300893	-0.1427848161
C	6.0	-0.3670842134	1.3098234709	-0.0186150689
C	6.0	-0.3956518515	2.1460197264	-1.1382347863
C	6.0	-0.8631223784	1.6979754563	-2.3590257425
C	6.0	-1.1632112259	0.2931443574	-2.4149127124
C	6.0	-1.0225075794	-0.5833637816	-1.3705040180
H	1.0	-1.2400826522	-1.6496082029	-1.5317186520
H	1.0	-1.4692688539	-0.0318193596	-3.4143898326
H	1.0	-0.9158910416	2.2890675092	-3.2476528900
H	1.0	-0.1212016557	3.1848957536	-1.0203151459
H	1.0	-0.1371519576	1.7885832281	0.9479192092
H	1.0	0.2392302207	-0.4004824187	1.6471780009
H	1.0	-0.1798766209	-1.7485791061	0.7670321170
 $END

 $EFRAG
COORD=CART  POSITION=OPTIMIZE
FRAGNAME=H2ODFT ! 1
 O1	-1.9625092284	0.4832557620	3.4266852252
 H2	-2.5226224057	0.0135739812	4.0238038964
 H3	-2.4848786909	0.6856015655	2.6670374288
FRAGNAME=H2ODFT ! 2
 O1	3.3592678726	2.4556633064	2.6091489663
 H2	4.0866352459	2.6423500156	3.1809559535
 H3	2.7699112263	1.8991707483	3.0927327028
FRAGNAME=H2ODFT ! 3
 O1	2.7044107308	1.8769025154	-5.5778207420
 H2	2.3223294881	2.6864903836	-5.8769191565
 H3	2.7454216935	1.9278507117	-4.6362259054
FRAGNAME=H2ODFT ! 4
 O1	0.2609229972	-3.1863444743	-0.1283566867
 H2	0.9922220153	-3.5124320968	0.3713903118
 H3	0.5362894357	-3.1668410680	-1.0309481755
FRAGNAME=H2ODFT ! 5
 O1	0.8676916847	-3.8742597648	-2.6474792055
 H2	1.0939057695	-4.7785539825	-2.7956602088
 H3	0.0498499294	-3.7225953843	-3.0935859561
FRAGNAME=H2ODFT ! 6
 O1	-1.6465346892	-3.6659010482	-3.1477431968
 H2	-1.9715240446	-3.8651605544	-2.2842873368
 H3	-2.0789645719	-2.8737989906	-3.4242521138
FRAGNAME=H2ODFT ! 7
 O1	-3.8295341185	0.8881394688	1.2607636094
 H2	-4.4600460860	1.4393409595	1.6960911062
 H3	-3.6988914240	1.2528164493	0.4000536465
FRAGNAME=H2ODFT ! 8
 O1	1.8993460803	2.3102849786	-3.1093902218
 H2	1.7440994464	3.1167179496	-2.6441560870
 H3	1.8590280465	1.6165327414	-2.4706721747
FRAGNAME=H2ODFT ! 9
 O1	1.7712774690	1.2679763569	4.3192655551
 H2	0.9534633032	1.7333721342	4.2453384651
 H3	1.5569299947	0.3507826649	4.3800055390
FRAGNAME=H2ODFT ! 10
 O1	-0.9763505734	4.8140721115	-3.9371282341
 H2	-1.1923563377	4.1329899045	-4.5538510172
 H3	-0.8964155668	5.6133945108	-4.4326810070
FRAGNAME=H2ODFT ! 11
 O1	-3.5582899055	-3.2042957652	3.5327983103
 H2	-4.3385478314	-3.7326684656	3.5866342897
 H3	-3.6831948745	-2.6087586585	2.8112633096
FRAGNAME=H2ODFT ! 12
 O1	-2.2693293250	-3.6832162075	-0.5043249571
 H2	-1.4267516502	-3.6813538252	-0.0789570604
 H3	-2.8909943233	-3.3515140248	0.1236756368
FRAGNAME=H2ODFT ! 13
 O1	4.2680353527	-3.3840882533	-1.0176091865
 H2	3.7467639335	-2.7724939679	-1.5126919995
 H3	5.0920709546	-2.9585119103	-0.8423135588
FRAGNAME=H2ODFT ! 14
 O1	-2.3869464723	4.8254169951	-1.3103065885
 H2	-2.0716723929	4.9136218625	-2.1955752541
 H3	-1.6424822337	4.9497038189	-0.7435577578
FRAGNAME=H2ODFT ! 15
 O1	-3.6766020987	2.0328173101	-0.9586425541
 H2	-3.1225628187	1.7228154871	-1.6570821006
 H3	-3.4211579204	2.9247691186	-0.7852969535
FRAGNAME=H2ODFT ! 16
 O1	-2.6710007852	-1.2740632098	5.2539563369
 H2	-1.9243493891	-1.5729572005	5.7479730664
 H3	-3.0684174901	-2.0405347401	4.8725643993
FRAGNAME=H2ODFT ! 17
 O1	0.3632023173	-1.0064331304	3.6664883320
 H2	0.0107332499	-1.8633488390	3.4866565241
 H3	-0.3580886254	-0.3999196203	3.6139603186
FRAGNAME=H2ODFT ! 18
 O1	1.1032008285	4.8036674411	-2.3482438634
 H2	0.3119738677	4.7440121951	-2.8593990276
 H3	0.8634708374	5.1906085897	-1.5213916802
FRAGNAME=H2ODFT ! 19
 O1	-0.0744576725	5.5016982397	0.1440151027
 H2	0.2387137608	4.9942339792	0.8756448805
 H3	-0.0786010916	6.4038298612	0.4215395586
FRAGNAME=H2ODFT ! 20
 O1	-0.8424549000	-3.5018400134	3.4122635350
 H2	-0.4019022591	-4.2750910084	3.0978200213
 H3	-1.7683791146	-3.6624385591	3.3242242818
FRAGNAME=H2ODFT ! 21
 O1	2.9686352235	-0.9835508639	-5.4998258152
 H2	3.1008219613	-1.5056430163	-6.2749547754
 H3	3.0259007076	-0.0804115930	-5.7680394910
FRAGNAME=H2ODFT ! 22
 O1	2.7614662716	-2.1600408076	-2.8407425919
 H2	2.9661046586	-2.0041265506	-3.7488683152
 H3	2.1072108089	-2.8401236682	-2.8229789675
FRAGNAME=H2ODFT ! 23
 O1	-0.3578845293	-2.5979182062	6.0439724682
 H2	-0.3518199337	-3.2116830663	5.3269408292
 H3	0.5305033468	-2.2978693205	6.1517504899
FRAGNAME=H2ODFT ! 24
 O1	-0.1385987646	2.4636351615	-4.9562465476
 H2	0.5951616741	2.3717284646	-4.3697082011
 H3	-0.0265220606	1.8167419722	-5.6343663514
FRAGNAME=H2ODFT ! 25
 O1	2.3937508751	-3.6614236966	1.1362074226
 H2	3.1009089258	-3.7413260537	0.5161900371
 H3	2.5735634033	-2.8939439594	1.6553613126
FRAGNAME=H2ODFT ! 26
 O1	2.6792451845	-1.4116071272	2.4432076960
 H2	1.9313146017	-0.9490710946	2.7860468944
 H3	3.1555245752	-0.7977768374	1.9072517544
FRAGNAME=H2ODFT ! 27
 O1	0.7582158297	3.7689832158	2.2841982242
 H2	1.6848766729	3.6979925569	2.4489357796
 H3	0.3234404452	3.2812895825	2.9653764235
FRAGNAME=H2ODFT ! 28
 O1	3.8356509163	0.4464679314	0.9098182836
 H2	3.7587843658	1.3279834503	1.2383002120
 H3	3.4729924726	0.4490920450	0.0384111335
FRAGNAME=H2ODFT ! 29
 O1	2.4241328296	0.1550249215	-1.6240780095
 H2	2.5692174564	-0.6564723403	-2.0837530025
 H3	1.5170076146	0.1606932095	-1.3633671181
FRAGNAME=H2ODFT ! 30
 O1	0.9456988625	-5.1866979060	2.6158270830
 H2	0.9620163178	-6.1301609168	2.5936969711
 H3	1.6380294721	-4.8899863250	2.0470397603
FRAGNAME=H2ODFT ! 31
 O1	-3.2937790867	-1.6769437365	1.3948790883
 H2	-2.3559997087	-1.6234564343	1.3022108592
 H3	-3.6318288267	-0.8098655161	1.2374745549
FRAGNAME=H2ODFT ! 32
 O1	-0.5843138990	2.5076778796	4.1360475517
 H2	-1.3755570576	2.0410270270	3.9191381238
 H3	-0.8120641821	3.1302448599	4.8079244881
 $END