 # run type = MD, with functional = CAMB3LYP, COORD = UNIQUE is important
 $CONTRL SCFTYP=RHF RUNTYP=MD COORD=UNIQUE
    DFTTYP=CAMB3LYP MAXIT=200 ICHARG=0 MULT=1 $END
 # MD is recording every 10 frames with default 1 frame =10 fs
 # 25 degree celcius, RSTEMP is on for keeping the temp ~ +/-25
 # ssbp is on with default SForce value and radius estimated from prepareMD2.py 
 $MD KEVERY=10 PROD=.T. NVTNH=2 MBT=.T. MBR=.T. 
    BATHT=298 RSTEMP=.T. DTEMP=25 NSTEPS=50000
    SSBP=.T. SFORCE=1.0 DROFF=12.0632116659 $END
 #########1#########
 ###################
 # dispersion correction is off
 $DFT DC=.F. $END
 # memory requested at each node =1000 million words
 # memory reserved for communication = 1000 million words 
 $SYSTEM MWORDS=1000 MEMDDI=1000 $END
 $SCF DIRSCF=.T. $END
 # Basis set = 6-31+(2d,p)
 $BASIS GBASIS=N31 NGAUSS=6 NDFUNC=2 NPFUNC=1 
    DIFFS=.TRUE. POLAR=POPN31 $END
 # solute geometry - C1 1 = symmetry data
 $DATA
MD INPUT for aniline32
C1 1
 #########2#########
N	7.0	-2.3128100000	-0.0046000000	-0.0894530000
C	6.0	-0.9197160000	-0.0031280000	-0.0360090000
C	6.0	-0.2076150000	1.2004070000	-0.0355880000
.
.
H	1.0	-2.7544730000	0.8437050000	0.2369240000
H	1.0	-2.7570450000	-0.8248640000	0.2993670000
 ###################
 $END
 
 # solvent geometry in EFP1 (EFP2 is still not available)
 #########3#########
 $EFRAG
COORD=CART  POSITION=OPTIMIZE
FRAGNAME=H2ODFT ! 1
 O1	1.7760990000	4.8390610000	-2.1049530000
 H2	0.9224740000	4.4173920000	-2.2628490000
 H3	2.4128200000	4.1148590000	-2.1441810000
FRAGNAME=H2ODFT ! 2
 O1	3.6783070000	3.8351060000	0.8717800000
 H2	3.6020030000	4.1116030000	1.7932670000
 H3	3.4138960000	4.6126330000	0.3648680000
.
.
FRAGNAME=H2ODFT ! 32
 O1	3.7691430000	-1.4091250000	-4.0319510000
 H2	2.8756120000	-1.5562470000	-4.3656710000
 H3	3.6686840000	-1.3995500000	-3.0721400000
 $END
 ###################
