 # run type = [excitation] energy, with functional = CAMB3LYP, and TDDFT
 $CONTRL SCFTYP=RHF TDDFT=EXCITE DFTTYP=CAMB3LYP RUNTYP=ENERGY                     
       ICHARG=0 MULT=1 COORD=UNIQUE MAXIT=200 $END   
 #TDDFT requires lots of memory space
 # memory requested at each node =1000 million words
 # memory reserved for communication = 1000 million words                                       
 $SYSTEM MWORDS=200 MEMDDI=250 $END
 #activate direct SCF calculation
 $SCF DIRSCF=.T. $END
 # find 5 excited states - the current setting is purely driven by its lower cost
 # Previous experience shows that 10 states gives only a few strong peak.                                                         
 $TDDFT NSTATE=5 TPA=.f. $END   
 # Basis set = 6-311++(2d,p)
 $BASIS GBASIS=N311 NGAUSS=6 NDFUNC=2 NPFUNC=1 
       DIFFSP=.TRUE. DIFFS=.TRUE. POLAR=POPN311 $END     
 # solute geometry - C1 1 = symmetry data        
 $DATA
aniline32 at t= 15010
C1 1
N	7.0	2.4008547653	5.9114221893	-1.1412310058
C	6.0	1.9371475177	5.9223533811	-2.4157851823
C	6.0	0.6209366009	6.2361805033	-2.7812041720
C	6.0	0.1647443916	6.2506143410	-4.1120467466
C	6.0	1.0257966066	6.0302470214	-5.1619968306
C	6.0	2.3206871944	5.6013436130	-4.8191336787
C	6.0	2.7816701943	5.6319869564	-3.5109071785
H	1.0	3.7174658997	5.1792167910	-3.3730537148
H	1.0	3.0442819748	5.3626012085	-5.5970784678
H	1.0	0.6964441939	6.0626184504	-6.2108207757
H	1.0	-0.8806713295	6.5494661522	-4.2694627361
H	1.0	-0.0805914586	6.4688905479	-2.0333995184
H	1.0	1.7323956480	5.6459040114	-0.4329519914
H	1.0	3.3564486514	5.6102990678	-1.0242941608
 $END
 
 # solvent geometry in EFP1 (EFP2 is still not available)
 $EFRAG
COORD=CART  POSITION=OPTIMIZE 
FRAGNAME=H2ODFT ! 1
O1	2.335993939511	3.751856628604	1.427418842826
H2	1.439322965739	3.833168541986	1.710699607266
H3	2.854351938959	3.613582975500	2.203990690907
FRAGNAME=H2ODFT ! 2
O1	3.266753260182	2.613267395174	3.808546039622
H2	3.514552920456	1.768271678250	3.468757839439
H3	3.822697636667	2.780022240614	4.552855871622
.
.
.
FRAGNAME=H2ODFT ! 32
O1	-0.041331901955	-3.906598195206	1.282021099515
H2	-0.790424236756	-4.406259423929	1.565001283174
H3	-0.374908444181	-3.111491773717	0.898079798177
 $END
